c SHA-256 Cryptanalysis CNF formula
p cnf 3540 12066
513 0
514 0
515 0
-516 0
-517 0
518 0
519 0
-520 0
-521 0
522 0
523 0
-524 0
-525 0
526 0
527 0
528 0
529 0
-530 0
-531 0
532 0
-533 0
-534 0
-535 0
-536 0
-537 0
538 0
-539 0
540 0
-541 0
542 0
543 0
-544 0
545 0
-546 0
547 0
-548 0
-549 0
-550 0
-551 0
552 0
-553 0
554 0
555 0
556 0
-557 0
558 0
-559 0
560 0
561 0
562 0
563 0
-564 0
-565 0
566 0
567 0
-568 0
569 0
570 0
-571 0
572 0
573 0
574 0
-575 0
576 0
-577 0
578 0
-579 0
-580 0
581 0
582 0
583 0
-584 0
585 0
586 0
-587 0
-588 0
589 0
590 0
591 0
592 0
-593 0
594 0
595 0
596 0
-597 0
598 0
599 0
-600 0
-601 0
-602 0
603 0
604 0
605 0
606 0
-607 0
-608 0
-609 0
610 0
-611 0
612 0
613 0
614 0
-615 0
-616 0
617 0
-618 0
619 0
-620 0
621 0
622 0
623 0
624 0
625 0
626 0
627 0
628 0
-629 0
-630 0
631 0
-632 0
633 0
-634 0
635 0
-636 0
-637 0
638 0
-639 0
640 0
641 0
642 0
643 0
644 0
645 0
646 0
647 0
-648 0
-649 0
650 0
-651 0
-652 0
653 0
-654 0
655 0
-656 0
-657 0
658 0
659 0
660 0
-661 0
-662 0
-663 0
-664 0
665 0
-666 0
-667 0
-668 0
669 0
-670 0
671 0
-672 0
-673 0
-674 0
675 0
676 0
-677 0
-678 0
-679 0
680 0
-681 0
-682 0
-683 0
684 0
-685 0
686 0
687 0
-688 0
689 0
-690 0
691 0
-692 0
-693 0
-694 0
-695 0
-696 0
697 0
698 0
-699 0
700 0
701 0
-702 0
-703 0
704 0
705 0
706 0
-707 0
708 0
-709 0
710 0
-711 0
712 0
713 0
-714 0
-715 0
716 0
717 0
-718 0
719 0
720 0
721 0
722 0
-723 0
-724 0
-725 0
-726 0
-727 0
728 0
729 0
730 0
731 0
732 0
733 0
-734 0
-735 0
-736 0
737 0
-738 0
-739 0
740 0
741 0
-742 0
-743 0
-744 0
745 0
-746 0
747 0
748 0
-749 0
-750 0
751 0
752 0
-753 0
-754 0
-755 0
-756 0
-757 0
758 0
759 0
760 0
761 0
762 0
-763 0
764 0
765 0
-766 0
767 0
-768 0
-647 -652 -801 0
647 652 -801 0
-647 652 801 0
647 -652 801 0
-801 -666 -769 0
801 666 -769 0
-801 666 769 0
801 -666 769 0
-648 -653 -802 0
648 653 -802 0
-648 653 802 0
648 -653 802 0
-802 -667 -770 0
802 667 -770 0
-802 667 770 0
802 -667 770 0
-649 -654 -803 0
649 654 -803 0
-649 654 803 0
649 -654 803 0
-803 -668 -771 0
803 668 -771 0
-803 668 771 0
803 -668 771 0
-650 -655 -804 0
650 655 -804 0
-650 655 804 0
650 -655 804 0
-804 -669 -772 0
804 669 -772 0
-804 669 772 0
804 -669 772 0
-651 -656 -805 0
651 656 -805 0
-651 656 805 0
651 -656 805 0
-805 -670 -773 0
805 670 -773 0
-805 670 773 0
805 -670 773 0
-652 -657 -806 0
652 657 -806 0
-652 657 806 0
652 -657 806 0
-806 -671 -774 0
806 671 -774 0
-806 671 774 0
806 -671 774 0
-653 -658 -807 0
653 658 -807 0
-653 658 807 0
653 -658 807 0
-807 -672 -775 0
807 672 -775 0
-807 672 775 0
807 -672 775 0
-654 -659 -808 0
654 659 -808 0
-654 659 808 0
654 -659 808 0
-808 -641 -776 0
808 641 -776 0
-808 641 776 0
808 -641 776 0
-655 -660 -809 0
655 660 -809 0
-655 660 809 0
655 -660 809 0
-809 -642 -777 0
809 642 -777 0
-809 642 777 0
809 -642 777 0
-656 -661 -810 0
656 661 -810 0
-656 661 810 0
656 -661 810 0
-810 -643 -778 0
810 643 -778 0
-810 643 778 0
810 -643 778 0
-657 -662 -811 0
657 662 -811 0
-657 662 811 0
657 -662 811 0
-811 -644 -779 0
811 644 -779 0
-811 644 779 0
811 -644 779 0
-658 -663 -812 0
658 663 -812 0
-658 663 812 0
658 -663 812 0
-812 -645 -780 0
812 645 -780 0
-812 645 780 0
812 -645 780 0
-659 -664 -813 0
659 664 -813 0
-659 664 813 0
659 -664 813 0
-813 -646 -781 0
813 646 -781 0
-813 646 781 0
813 -646 781 0
-660 -665 -814 0
660 665 -814 0
-660 665 814 0
660 -665 814 0
-814 -647 -782 0
814 647 -782 0
-814 647 782 0
814 -647 782 0
-661 -666 -815 0
661 666 -815 0
-661 666 815 0
661 -666 815 0
-815 -648 -783 0
815 648 -783 0
-815 648 783 0
815 -648 783 0
-662 -667 -816 0
662 667 -816 0
-662 667 816 0
662 -667 816 0
-816 -649 -784 0
816 649 -784 0
-816 649 784 0
816 -649 784 0
-663 -668 -817 0
663 668 -817 0
-663 668 817 0
663 -668 817 0
-817 -650 -785 0
817 650 -785 0
-817 650 785 0
817 -650 785 0
-664 -669 -818 0
664 669 -818 0
-664 669 818 0
664 -669 818 0
-818 -651 -786 0
818 651 -786 0
-818 651 786 0
818 -651 786 0
-665 -670 -819 0
665 670 -819 0
-665 670 819 0
665 -670 819 0
-819 -652 -787 0
819 652 -787 0
-819 652 787 0
819 -652 787 0
-666 -671 -820 0
666 671 -820 0
-666 671 820 0
666 -671 820 0
-820 -653 -788 0
820 653 -788 0
-820 653 788 0
820 -653 788 0
-667 -672 -821 0
667 672 -821 0
-667 672 821 0
667 -672 821 0
-821 -654 -789 0
821 654 -789 0
-821 654 789 0
821 -654 789 0
-668 -641 -822 0
668 641 -822 0
-668 641 822 0
668 -641 822 0
-822 -655 -790 0
822 655 -790 0
-822 655 790 0
822 -655 790 0
-669 -642 -823 0
669 642 -823 0
-669 642 823 0
669 -642 823 0
-823 -656 -791 0
823 656 -791 0
-823 656 791 0
823 -656 791 0
-670 -643 -824 0
670 643 -824 0
-670 643 824 0
670 -643 824 0
-824 -657 -792 0
824 657 -792 0
-824 657 792 0
824 -657 792 0
-671 -644 -825 0
671 644 -825 0
-671 644 825 0
671 -644 825 0
-825 -658 -793 0
825 658 -793 0
-825 658 793 0
825 -658 793 0
-672 -645 -826 0
672 645 -826 0
-672 645 826 0
672 -645 826 0
-826 -659 -794 0
826 659 -794 0
-826 659 794 0
826 -659 794 0
-641 -646 -827 0
641 646 -827 0
-641 646 827 0
641 -646 827 0
-827 -660 -795 0
827 660 -795 0
-827 660 795 0
827 -660 795 0
-642 -647 -828 0
642 647 -828 0
-642 647 828 0
642 -647 828 0
-828 -661 -796 0
828 661 -796 0
-828 661 796 0
828 -661 796 0
-643 -648 -829 0
643 648 -829 0
-643 648 829 0
643 -648 829 0
-829 -662 -797 0
829 662 -797 0
-829 662 797 0
829 -662 797 0
-644 -649 -830 0
644 649 -830 0
-644 649 830 0
644 -649 830 0
-830 -663 -798 0
830 663 -798 0
-830 663 798 0
830 -663 798 0
-645 -650 -831 0
645 650 -831 0
-645 650 831 0
645 -650 831 0
-831 -664 -799 0
831 664 -799 0
-831 664 799 0
831 -664 799 0
-646 -651 -832 0
646 651 -832 0
-646 651 832 0
646 -651 832 0
-832 -665 -800 0
832 665 -800 0
-832 665 800 0
832 -665 800 0
-641 -673 833 0
-641 673 -833 0
641 -705 833 0
641 705 -833 0
-642 -674 834 0
-642 674 -834 0
642 -706 834 0
642 706 -834 0
-643 -675 835 0
-643 675 -835 0
643 -707 835 0
643 707 -835 0
-644 -676 836 0
-644 676 -836 0
644 -708 836 0
644 708 -836 0
-645 -677 837 0
-645 677 -837 0
645 -709 837 0
645 709 -837 0
-646 -678 838 0
-646 678 -838 0
646 -710 838 0
646 710 -838 0
-647 -679 839 0
-647 679 -839 0
647 -711 839 0
647 711 -839 0
-648 -680 840 0
-648 680 -840 0
648 -712 840 0
648 712 -840 0
-649 -681 841 0
-649 681 -841 0
649 -713 841 0
649 713 -841 0
-650 -682 842 0
-650 682 -842 0
650 -714 842 0
650 714 -842 0
-651 -683 843 0
-651 683 -843 0
651 -715 843 0
651 715 -843 0
-652 -684 844 0
-652 684 -844 0
652 -716 844 0
652 716 -844 0
-653 -685 845 0
-653 685 -845 0
653 -717 845 0
653 717 -845 0
-654 -686 846 0
-654 686 -846 0
654 -718 846 0
654 718 -846 0
-655 -687 847 0
-655 687 -847 0
655 -719 847 0
655 719 -847 0
-656 -688 848 0
-656 688 -848 0
656 -720 848 0
656 720 -848 0
-657 -689 849 0
-657 689 -849 0
657 -721 849 0
657 721 -849 0
-658 -690 850 0
-658 690 -850 0
658 -722 850 0
658 722 -850 0
-659 -691 851 0
-659 691 -851 0
659 -723 851 0
659 723 -851 0
-660 -692 852 0
-660 692 -852 0
660 -724 852 0
660 724 -852 0
-661 -693 853 0
-661 693 -853 0
661 -725 853 0
661 725 -853 0
-662 -694 854 0
-662 694 -854 0
662 -726 854 0
662 726 -854 0
-663 -695 855 0
-663 695 -855 0
663 -727 855 0
663 727 -855 0
-664 -696 856 0
-664 696 -856 0
664 -728 856 0
664 728 -856 0
-665 -697 857 0
-665 697 -857 0
665 -729 857 0
665 729 -857 0
-666 -698 858 0
-666 698 -858 0
666 -730 858 0
666 730 -858 0
-667 -699 859 0
-667 699 -859 0
667 -731 859 0
667 731 -859 0
-668 -700 860 0
-668 700 -860 0
668 -732 860 0
668 732 -860 0
-669 -701 861 0
-669 701 -861 0
669 -733 861 0
669 733 -861 0
-670 -702 862 0
-670 702 -862 0
670 -734 862 0
670 734 -862 0
-671 -703 863 0
-671 703 -863 0
671 -735 863 0
671 735 -863 0
-672 -704 864 0
-672 704 -864 0
672 -736 864 0
672 736 -864 0
-737 -769 -865 0
737 769 -865 0
-737 769 865 0
737 -769 865 0
-737 -769 897 0
737 -897 0
769 -897 0
-738 -770 -898 0
738 770 -898 0
-738 770 898 0
738 -770 898 0
-898 -897 -866 0
898 897 -866 0
-898 897 866 0
898 -897 866 0
-738 -770 899 0
-738 -897 899 0
-770 -897 899 0
738 770 -899 0
738 897 -899 0
770 897 -899 0
-739 -771 -900 0
739 771 -900 0
-739 771 900 0
739 -771 900 0
-900 -899 -867 0
900 899 -867 0
-900 899 867 0
900 -899 867 0
-739 -771 901 0
-739 -899 901 0
-771 -899 901 0
739 771 -901 0
739 899 -901 0
771 899 -901 0
-740 -772 -902 0
740 772 -902 0
-740 772 902 0
740 -772 902 0
-902 -901 -868 0
902 901 -868 0
-902 901 868 0
902 -901 868 0
-740 -772 903 0
-740 -901 903 0
-772 -901 903 0
740 772 -903 0
740 901 -903 0
772 901 -903 0
-741 -773 -904 0
741 773 -904 0
-741 773 904 0
741 -773 904 0
-904 -903 -869 0
904 903 -869 0
-904 903 869 0
904 -903 869 0
-741 -773 905 0
-741 -903 905 0
-773 -903 905 0
741 773 -905 0
741 903 -905 0
773 903 -905 0
-742 -774 -906 0
742 774 -906 0
-742 774 906 0
742 -774 906 0
-906 -905 -870 0
906 905 -870 0
-906 905 870 0
906 -905 870 0
-742 -774 907 0
-742 -905 907 0
-774 -905 907 0
742 774 -907 0
742 905 -907 0
774 905 -907 0
-743 -775 -908 0
743 775 -908 0
-743 775 908 0
743 -775 908 0
-908 -907 -871 0
908 907 -871 0
-908 907 871 0
908 -907 871 0
-743 -775 909 0
-743 -907 909 0
-775 -907 909 0
743 775 -909 0
743 907 -909 0
775 907 -909 0
-744 -776 -910 0
744 776 -910 0
-744 776 910 0
744 -776 910 0
-910 -909 -872 0
910 909 -872 0
-910 909 872 0
910 -909 872 0
-744 -776 911 0
-744 -909 911 0
-776 -909 911 0
744 776 -911 0
744 909 -911 0
776 909 -911 0
-745 -777 -912 0
745 777 -912 0
-745 777 912 0
745 -777 912 0
-912 -911 -873 0
912 911 -873 0
-912 911 873 0
912 -911 873 0
-745 -777 913 0
-745 -911 913 0
-777 -911 913 0
745 777 -913 0
745 911 -913 0
777 911 -913 0
-746 -778 -914 0
746 778 -914 0
-746 778 914 0
746 -778 914 0
-914 -913 -874 0
914 913 -874 0
-914 913 874 0
914 -913 874 0
-746 -778 915 0
-746 -913 915 0
-778 -913 915 0
746 778 -915 0
746 913 -915 0
778 913 -915 0
-747 -779 -916 0
747 779 -916 0
-747 779 916 0
747 -779 916 0
-916 -915 -875 0
916 915 -875 0
-916 915 875 0
916 -915 875 0
-747 -779 917 0
-747 -915 917 0
-779 -915 917 0
747 779 -917 0
747 915 -917 0
779 915 -917 0
-748 -780 -918 0
748 780 -918 0
-748 780 918 0
748 -780 918 0
-918 -917 -876 0
918 917 -876 0
-918 917 876 0
918 -917 876 0
-748 -780 919 0
-748 -917 919 0
-780 -917 919 0
748 780 -919 0
748 917 -919 0
780 917 -919 0
-749 -781 -920 0
749 781 -920 0
-749 781 920 0
749 -781 920 0
-920 -919 -877 0
920 919 -877 0
-920 919 877 0
920 -919 877 0
-749 -781 921 0
-749 -919 921 0
-781 -919 921 0
749 781 -921 0
749 919 -921 0
781 919 -921 0
-750 -782 -922 0
750 782 -922 0
-750 782 922 0
750 -782 922 0
-922 -921 -878 0
922 921 -878 0
-922 921 878 0
922 -921 878 0
-750 -782 923 0
-750 -921 923 0
-782 -921 923 0
750 782 -923 0
750 921 -923 0
782 921 -923 0
-751 -783 -924 0
751 783 -924 0
-751 783 924 0
751 -783 924 0
-924 -923 -879 0
924 923 -879 0
-924 923 879 0
924 -923 879 0
-751 -783 925 0
-751 -923 925 0
-783 -923 925 0
751 783 -925 0
751 923 -925 0
783 923 -925 0
-752 -784 -926 0
752 784 -926 0
-752 784 926 0
752 -784 926 0
-926 -925 -880 0
926 925 -880 0
-926 925 880 0
926 -925 880 0
-752 -784 927 0
-752 -925 927 0
-784 -925 927 0
752 784 -927 0
752 925 -927 0
784 925 -927 0
-753 -785 -928 0
753 785 -928 0
-753 785 928 0
753 -785 928 0
-928 -927 -881 0
928 927 -881 0
-928 927 881 0
928 -927 881 0
-753 -785 929 0
-753 -927 929 0
-785 -927 929 0
753 785 -929 0
753 927 -929 0
785 927 -929 0
-754 -786 -930 0
754 786 -930 0
-754 786 930 0
754 -786 930 0
-930 -929 -882 0
930 929 -882 0
-930 929 882 0
930 -929 882 0
-754 -786 931 0
-754 -929 931 0
-786 -929 931 0
754 786 -931 0
754 929 -931 0
786 929 -931 0
-755 -787 -932 0
755 787 -932 0
-755 787 932 0
755 -787 932 0
-932 -931 -883 0
932 931 -883 0
-932 931 883 0
932 -931 883 0
-755 -787 933 0
-755 -931 933 0
-787 -931 933 0
755 787 -933 0
755 931 -933 0
787 931 -933 0
-756 -788 -934 0
756 788 -934 0
-756 788 934 0
756 -788 934 0
-934 -933 -884 0
934 933 -884 0
-934 933 884 0
934 -933 884 0
-756 -788 935 0
-756 -933 935 0
-788 -933 935 0
756 788 -935 0
756 933 -935 0
788 933 -935 0
-757 -789 -936 0
757 789 -936 0
-757 789 936 0
757 -789 936 0
-936 -935 -885 0
936 935 -885 0
-936 935 885 0
936 -935 885 0
-757 -789 937 0
-757 -935 937 0
-789 -935 937 0
757 789 -937 0
757 935 -937 0
789 935 -937 0
-758 -790 -938 0
758 790 -938 0
-758 790 938 0
758 -790 938 0
-938 -937 -886 0
938 937 -886 0
-938 937 886 0
938 -937 886 0
-758 -790 939 0
-758 -937 939 0
-790 -937 939 0
758 790 -939 0
758 937 -939 0
790 937 -939 0
-759 -791 -940 0
759 791 -940 0
-759 791 940 0
759 -791 940 0
-940 -939 -887 0
940 939 -887 0
-940 939 887 0
940 -939 887 0
-759 -791 941 0
-759 -939 941 0
-791 -939 941 0
759 791 -941 0
759 939 -941 0
791 939 -941 0
-760 -792 -942 0
760 792 -942 0
-760 792 942 0
760 -792 942 0
-942 -941 -888 0
942 941 -888 0
-942 941 888 0
942 -941 888 0
-760 -792 943 0
-760 -941 943 0
-792 -941 943 0
760 792 -943 0
760 941 -943 0
792 941 -943 0
-761 -793 -944 0
761 793 -944 0
-761 793 944 0
761 -793 944 0
-944 -943 -889 0
944 943 -889 0
-944 943 889 0
944 -943 889 0
-761 -793 945 0
-761 -943 945 0
-793 -943 945 0
761 793 -945 0
761 943 -945 0
793 943 -945 0
-762 -794 -946 0
762 794 -946 0
-762 794 946 0
762 -794 946 0
-946 -945 -890 0
946 945 -890 0
-946 945 890 0
946 -945 890 0
-762 -794 947 0
-762 -945 947 0
-794 -945 947 0
762 794 -947 0
762 945 -947 0
794 945 -947 0
-763 -795 -948 0
763 795 -948 0
-763 795 948 0
763 -795 948 0
-948 -947 -891 0
948 947 -891 0
-948 947 891 0
948 -947 891 0
-763 -795 949 0
-763 -947 949 0
-795 -947 949 0
763 795 -949 0
763 947 -949 0
795 947 -949 0
-764 -796 -950 0
764 796 -950 0
-764 796 950 0
764 -796 950 0
-950 -949 -892 0
950 949 -892 0
-950 949 892 0
950 -949 892 0
-764 -796 951 0
-764 -949 951 0
-796 -949 951 0
764 796 -951 0
764 949 -951 0
796 949 -951 0
-765 -797 -952 0
765 797 -952 0
-765 797 952 0
765 -797 952 0
-952 -951 -893 0
952 951 -893 0
-952 951 893 0
952 -951 893 0
-765 -797 953 0
-765 -951 953 0
-797 -951 953 0
765 797 -953 0
765 951 -953 0
797 951 -953 0
-766 -798 -954 0
766 798 -954 0
-766 798 954 0
766 -798 954 0
-954 -953 -894 0
954 953 -894 0
-954 953 894 0
954 -953 894 0
-766 -798 955 0
-766 -953 955 0
-798 -953 955 0
766 798 -955 0
766 953 -955 0
798 953 -955 0
-767 -799 -956 0
767 799 -956 0
-767 799 956 0
767 -799 956 0
-956 -955 -895 0
956 955 -895 0
-956 955 895 0
956 -955 895 0
-767 -799 957 0
-767 -955 957 0
-799 -955 957 0
767 799 -957 0
767 955 -957 0
799 955 -957 0
-768 -800 -958 0
768 800 -958 0
-768 800 958 0
768 -800 958 0
-958 -957 -896 0
958 957 -896 0
-958 957 896 0
958 -957 896 0
-833 -1 -959 0
833 1 -959 0
-833 1 959 0
833 -1 959 0
-833 -1 991 0
833 -991 0
1 -991 0
-834 -2 -992 0
834 2 -992 0
-834 2 992 0
834 -2 992 0
-992 -991 -960 0
992 991 -960 0
-992 991 960 0
992 -991 960 0
-834 -2 993 0
-834 -991 993 0
-2 -991 993 0
834 2 -993 0
834 991 -993 0
2 991 -993 0
-835 -3 -994 0
835 3 -994 0
-835 3 994 0
835 -3 994 0
-994 -993 -961 0
994 993 -961 0
-994 993 961 0
994 -993 961 0
-835 -3 995 0
-835 -993 995 0
-3 -993 995 0
835 3 -995 0
835 993 -995 0
3 993 -995 0
-836 -4 -996 0
836 4 -996 0
-836 4 996 0
836 -4 996 0
-996 -995 -962 0
996 995 -962 0
-996 995 962 0
996 -995 962 0
-836 -4 997 0
-836 -995 997 0
-4 -995 997 0
836 4 -997 0
836 995 -997 0
4 995 -997 0
-837 -5 -998 0
837 5 -998 0
-837 5 998 0
837 -5 998 0
-998 -997 -963 0
998 997 -963 0
-998 997 963 0
998 -997 963 0
-837 -5 999 0
-837 -997 999 0
-5 -997 999 0
837 5 -999 0
837 997 -999 0
5 997 -999 0
-838 -6 -1000 0
838 6 -1000 0
-838 6 1000 0
838 -6 1000 0
-1000 -999 -964 0
1000 999 -964 0
-1000 999 964 0
1000 -999 964 0
-838 -6 1001 0
-838 -999 1001 0
-6 -999 1001 0
838 6 -1001 0
838 999 -1001 0
6 999 -1001 0
-839 -7 -1002 0
839 7 -1002 0
-839 7 1002 0
839 -7 1002 0
-1002 -1001 -965 0
1002 1001 -965 0
-1002 1001 965 0
1002 -1001 965 0
-839 -7 1003 0
-839 -1001 1003 0
-7 -1001 1003 0
839 7 -1003 0
839 1001 -1003 0
7 1001 -1003 0
-840 -8 -1004 0
840 8 -1004 0
-840 8 1004 0
840 -8 1004 0
-1004 -1003 -966 0
1004 1003 -966 0
-1004 1003 966 0
1004 -1003 966 0
-840 -8 1005 0
-840 -1003 1005 0
-8 -1003 1005 0
840 8 -1005 0
840 1003 -1005 0
8 1003 -1005 0
-841 -9 -1006 0
841 9 -1006 0
-841 9 1006 0
841 -9 1006 0
-1006 -1005 -967 0
1006 1005 -967 0
-1006 1005 967 0
1006 -1005 967 0
-841 -9 1007 0
-841 -1005 1007 0
-9 -1005 1007 0
841 9 -1007 0
841 1005 -1007 0
9 1005 -1007 0
-842 -10 -1008 0
842 10 -1008 0
-842 10 1008 0
842 -10 1008 0
-1008 -1007 -968 0
1008 1007 -968 0
-1008 1007 968 0
1008 -1007 968 0
-842 -10 1009 0
-842 -1007 1009 0
-10 -1007 1009 0
842 10 -1009 0
842 1007 -1009 0
10 1007 -1009 0
-843 -11 -1010 0
843 11 -1010 0
-843 11 1010 0
843 -11 1010 0
-1010 -1009 -969 0
1010 1009 -969 0
-1010 1009 969 0
1010 -1009 969 0
-843 -11 1011 0
-843 -1009 1011 0
-11 -1009 1011 0
843 11 -1011 0
843 1009 -1011 0
11 1009 -1011 0
-844 -12 -1012 0
844 12 -1012 0
-844 12 1012 0
844 -12 1012 0
-1012 -1011 -970 0
1012 1011 -970 0
-1012 1011 970 0
1012 -1011 970 0
-844 -12 1013 0
-844 -1011 1013 0
-12 -1011 1013 0
844 12 -1013 0
844 1011 -1013 0
12 1011 -1013 0
-845 -13 -1014 0
845 13 -1014 0
-845 13 1014 0
845 -13 1014 0
-1014 -1013 -971 0
1014 1013 -971 0
-1014 1013 971 0
1014 -1013 971 0
-845 -13 1015 0
-845 -1013 1015 0
-13 -1013 1015 0
845 13 -1015 0
845 1013 -1015 0
13 1013 -1015 0
-846 -14 -1016 0
846 14 -1016 0
-846 14 1016 0
846 -14 1016 0
-1016 -1015 -972 0
1016 1015 -972 0
-1016 1015 972 0
1016 -1015 972 0
-846 -14 1017 0
-846 -1015 1017 0
-14 -1015 1017 0
846 14 -1017 0
846 1015 -1017 0
14 1015 -1017 0
-847 -15 -1018 0
847 15 -1018 0
-847 15 1018 0
847 -15 1018 0
-1018 -1017 -973 0
1018 1017 -973 0
-1018 1017 973 0
1018 -1017 973 0
-847 -15 1019 0
-847 -1017 1019 0
-15 -1017 1019 0
847 15 -1019 0
847 1017 -1019 0
15 1017 -1019 0
-848 -16 -1020 0
848 16 -1020 0
-848 16 1020 0
848 -16 1020 0
-1020 -1019 -974 0
1020 1019 -974 0
-1020 1019 974 0
1020 -1019 974 0
-848 -16 1021 0
-848 -1019 1021 0
-16 -1019 1021 0
848 16 -1021 0
848 1019 -1021 0
16 1019 -1021 0
-849 -17 -1022 0
849 17 -1022 0
-849 17 1022 0
849 -17 1022 0
-1022 -1021 -975 0
1022 1021 -975 0
-1022 1021 975 0
1022 -1021 975 0
-849 -17 1023 0
-849 -1021 1023 0
-17 -1021 1023 0
849 17 -1023 0
849 1021 -1023 0
17 1021 -1023 0
-850 -18 -1024 0
850 18 -1024 0
-850 18 1024 0
850 -18 1024 0
-1024 -1023 -976 0
1024 1023 -976 0
-1024 1023 976 0
1024 -1023 976 0
-850 -18 1025 0
-850 -1023 1025 0
-18 -1023 1025 0
850 18 -1025 0
850 1023 -1025 0
18 1023 -1025 0
-851 -19 -1026 0
851 19 -1026 0
-851 19 1026 0
851 -19 1026 0
-1026 -1025 -977 0
1026 1025 -977 0
-1026 1025 977 0
1026 -1025 977 0
-851 -19 1027 0
-851 -1025 1027 0
-19 -1025 1027 0
851 19 -1027 0
851 1025 -1027 0
19 1025 -1027 0
-852 -20 -1028 0
852 20 -1028 0
-852 20 1028 0
852 -20 1028 0
-1028 -1027 -978 0
1028 1027 -978 0
-1028 1027 978 0
1028 -1027 978 0
-852 -20 1029 0
-852 -1027 1029 0
-20 -1027 1029 0
852 20 -1029 0
852 1027 -1029 0
20 1027 -1029 0
-853 -21 -1030 0
853 21 -1030 0
-853 21 1030 0
853 -21 1030 0
-1030 -1029 -979 0
1030 1029 -979 0
-1030 1029 979 0
1030 -1029 979 0
-853 -21 1031 0
-853 -1029 1031 0
-21 -1029 1031 0
853 21 -1031 0
853 1029 -1031 0
21 1029 -1031 0
-854 -22 -1032 0
854 22 -1032 0
-854 22 1032 0
854 -22 1032 0
-1032 -1031 -980 0
1032 1031 -980 0
-1032 1031 980 0
1032 -1031 980 0
-854 -22 1033 0
-854 -1031 1033 0
-22 -1031 1033 0
854 22 -1033 0
854 1031 -1033 0
22 1031 -1033 0
-855 -23 -1034 0
855 23 -1034 0
-855 23 1034 0
855 -23 1034 0
-1034 -1033 -981 0
1034 1033 -981 0
-1034 1033 981 0
1034 -1033 981 0
-855 -23 1035 0
-855 -1033 1035 0
-23 -1033 1035 0
855 23 -1035 0
855 1033 -1035 0
23 1033 -1035 0
-856 -24 -1036 0
856 24 -1036 0
-856 24 1036 0
856 -24 1036 0
-1036 -1035 -982 0
1036 1035 -982 0
-1036 1035 982 0
1036 -1035 982 0
-856 -24 1037 0
-856 -1035 1037 0
-24 -1035 1037 0
856 24 -1037 0
856 1035 -1037 0
24 1035 -1037 0
-857 -25 -1038 0
857 25 -1038 0
-857 25 1038 0
857 -25 1038 0
-1038 -1037 -983 0
1038 1037 -983 0
-1038 1037 983 0
1038 -1037 983 0
-857 -25 1039 0
-857 -1037 1039 0
-25 -1037 1039 0
857 25 -1039 0
857 1037 -1039 0
25 1037 -1039 0
-858 -26 -1040 0
858 26 -1040 0
-858 26 1040 0
858 -26 1040 0
-1040 -1039 -984 0
1040 1039 -984 0
-1040 1039 984 0
1040 -1039 984 0
-858 -26 1041 0
-858 -1039 1041 0
-26 -1039 1041 0
858 26 -1041 0
858 1039 -1041 0
26 1039 -1041 0
-859 -27 -1042 0
859 27 -1042 0
-859 27 1042 0
859 -27 1042 0
-1042 -1041 -985 0
1042 1041 -985 0
-1042 1041 985 0
1042 -1041 985 0
-859 -27 1043 0
-859 -1041 1043 0
-27 -1041 1043 0
859 27 -1043 0
859 1041 -1043 0
27 1041 -1043 0
-860 -28 -1044 0
860 28 -1044 0
-860 28 1044 0
860 -28 1044 0
-1044 -1043 -986 0
1044 1043 -986 0
-1044 1043 986 0
1044 -1043 986 0
-860 -28 1045 0
-860 -1043 1045 0
-28 -1043 1045 0
860 28 -1045 0
860 1043 -1045 0
28 1043 -1045 0
-861 -29 -1046 0
861 29 -1046 0
-861 29 1046 0
861 -29 1046 0
-1046 -1045 -987 0
1046 1045 -987 0
-1046 1045 987 0
1046 -1045 987 0
-861 -29 1047 0
-861 -1045 1047 0
-29 -1045 1047 0
861 29 -1047 0
861 1045 -1047 0
29 1045 -1047 0
-862 -30 -1048 0
862 30 -1048 0
-862 30 1048 0
862 -30 1048 0
-1048 -1047 -988 0
1048 1047 -988 0
-1048 1047 988 0
1048 -1047 988 0
-862 -30 1049 0
-862 -1047 1049 0
-30 -1047 1049 0
862 30 -1049 0
862 1047 -1049 0
30 1047 -1049 0
-863 -31 -1050 0
863 31 -1050 0
-863 31 1050 0
863 -31 1050 0
-1050 -1049 -989 0
1050 1049 -989 0
-1050 1049 989 0
1050 -1049 989 0
-863 -31 1051 0
-863 -1049 1051 0
-31 -1049 1051 0
863 31 -1051 0
863 1049 -1051 0
31 1049 -1051 0
-864 -32 -1052 0
864 32 -1052 0
-864 32 1052 0
864 -32 1052 0
-1052 -1051 -990 0
1052 1051 -990 0
-1052 1051 990 0
1052 -1051 990 0
-1053 0
-1054 0
-1055 0
1056 0
1057 0
-1058 0
-1059 0
1060 0
1061 0
1062 0
1063 0
1064 0
-1065 0
1066 0
-1067 0
-1068 0
-1069 0
1070 0
-1071 0
1072 0
-1073 0
-1074 0
-1075 0
1076 0
-1077 0
1078 0
-1079 0
-1080 0
-1081 0
-1082 0
1083 0
-1084 0
-865 -1053 -1085 0
865 1053 -1085 0
-865 1053 1085 0
865 -1053 1085 0
-865 -1053 1117 0
865 -1117 0
1053 -1117 0
-866 -1054 -1118 0
866 1054 -1118 0
-866 1054 1118 0
866 -1054 1118 0
-1118 -1117 -1086 0
1118 1117 -1086 0
-1118 1117 1086 0
1118 -1117 1086 0
-866 -1054 1119 0
-866 -1117 1119 0
-1054 -1117 1119 0
866 1054 -1119 0
866 1117 -1119 0
1054 1117 -1119 0
-867 -1055 -1120 0
867 1055 -1120 0
-867 1055 1120 0
867 -1055 1120 0
-1120 -1119 -1087 0
1120 1119 -1087 0
-1120 1119 1087 0
1120 -1119 1087 0
-867 -1055 1121 0
-867 -1119 1121 0
-1055 -1119 1121 0
867 1055 -1121 0
867 1119 -1121 0
1055 1119 -1121 0
-868 -1056 -1122 0
868 1056 -1122 0
-868 1056 1122 0
868 -1056 1122 0
-1122 -1121 -1088 0
1122 1121 -1088 0
-1122 1121 1088 0
1122 -1121 1088 0
-868 -1056 1123 0
-868 -1121 1123 0
-1056 -1121 1123 0
868 1056 -1123 0
868 1121 -1123 0
1056 1121 -1123 0
-869 -1057 -1124 0
869 1057 -1124 0
-869 1057 1124 0
869 -1057 1124 0
-1124 -1123 -1089 0
1124 1123 -1089 0
-1124 1123 1089 0
1124 -1123 1089 0
-869 -1057 1125 0
-869 -1123 1125 0
-1057 -1123 1125 0
869 1057 -1125 0
869 1123 -1125 0
1057 1123 -1125 0
-870 -1058 -1126 0
870 1058 -1126 0
-870 1058 1126 0
870 -1058 1126 0
-1126 -1125 -1090 0
1126 1125 -1090 0
-1126 1125 1090 0
1126 -1125 1090 0
-870 -1058 1127 0
-870 -1125 1127 0
-1058 -1125 1127 0
870 1058 -1127 0
870 1125 -1127 0
1058 1125 -1127 0
-871 -1059 -1128 0
871 1059 -1128 0
-871 1059 1128 0
871 -1059 1128 0
-1128 -1127 -1091 0
1128 1127 -1091 0
-1128 1127 1091 0
1128 -1127 1091 0
-871 -1059 1129 0
-871 -1127 1129 0
-1059 -1127 1129 0
871 1059 -1129 0
871 1127 -1129 0
1059 1127 -1129 0
-872 -1060 -1130 0
872 1060 -1130 0
-872 1060 1130 0
872 -1060 1130 0
-1130 -1129 -1092 0
1130 1129 -1092 0
-1130 1129 1092 0
1130 -1129 1092 0
-872 -1060 1131 0
-872 -1129 1131 0
-1060 -1129 1131 0
872 1060 -1131 0
872 1129 -1131 0
1060 1129 -1131 0
-873 -1061 -1132 0
873 1061 -1132 0
-873 1061 1132 0
873 -1061 1132 0
-1132 -1131 -1093 0
1132 1131 -1093 0
-1132 1131 1093 0
1132 -1131 1093 0
-873 -1061 1133 0
-873 -1131 1133 0
-1061 -1131 1133 0
873 1061 -1133 0
873 1131 -1133 0
1061 1131 -1133 0
-874 -1062 -1134 0
874 1062 -1134 0
-874 1062 1134 0
874 -1062 1134 0
-1134 -1133 -1094 0
1134 1133 -1094 0
-1134 1133 1094 0
1134 -1133 1094 0
-874 -1062 1135 0
-874 -1133 1135 0
-1062 -1133 1135 0
874 1062 -1135 0
874 1133 -1135 0
1062 1133 -1135 0
-875 -1063 -1136 0
875 1063 -1136 0
-875 1063 1136 0
875 -1063 1136 0
-1136 -1135 -1095 0
1136 1135 -1095 0
-1136 1135 1095 0
1136 -1135 1095 0
-875 -1063 1137 0
-875 -1135 1137 0
-1063 -1135 1137 0
875 1063 -1137 0
875 1135 -1137 0
1063 1135 -1137 0
-876 -1064 -1138 0
876 1064 -1138 0
-876 1064 1138 0
876 -1064 1138 0
-1138 -1137 -1096 0
1138 1137 -1096 0
-1138 1137 1096 0
1138 -1137 1096 0
-876 -1064 1139 0
-876 -1137 1139 0
-1064 -1137 1139 0
876 1064 -1139 0
876 1137 -1139 0
1064 1137 -1139 0
-877 -1065 -1140 0
877 1065 -1140 0
-877 1065 1140 0
877 -1065 1140 0
-1140 -1139 -1097 0
1140 1139 -1097 0
-1140 1139 1097 0
1140 -1139 1097 0
-877 -1065 1141 0
-877 -1139 1141 0
-1065 -1139 1141 0
877 1065 -1141 0
877 1139 -1141 0
1065 1139 -1141 0
-878 -1066 -1142 0
878 1066 -1142 0
-878 1066 1142 0
878 -1066 1142 0
-1142 -1141 -1098 0
1142 1141 -1098 0
-1142 1141 1098 0
1142 -1141 1098 0
-878 -1066 1143 0
-878 -1141 1143 0
-1066 -1141 1143 0
878 1066 -1143 0
878 1141 -1143 0
1066 1141 -1143 0
-879 -1067 -1144 0
879 1067 -1144 0
-879 1067 1144 0
879 -1067 1144 0
-1144 -1143 -1099 0
1144 1143 -1099 0
-1144 1143 1099 0
1144 -1143 1099 0
-879 -1067 1145 0
-879 -1143 1145 0
-1067 -1143 1145 0
879 1067 -1145 0
879 1143 -1145 0
1067 1143 -1145 0
-880 -1068 -1146 0
880 1068 -1146 0
-880 1068 1146 0
880 -1068 1146 0
-1146 -1145 -1100 0
1146 1145 -1100 0
-1146 1145 1100 0
1146 -1145 1100 0
-880 -1068 1147 0
-880 -1145 1147 0
-1068 -1145 1147 0
880 1068 -1147 0
880 1145 -1147 0
1068 1145 -1147 0
-881 -1069 -1148 0
881 1069 -1148 0
-881 1069 1148 0
881 -1069 1148 0
-1148 -1147 -1101 0
1148 1147 -1101 0
-1148 1147 1101 0
1148 -1147 1101 0
-881 -1069 1149 0
-881 -1147 1149 0
-1069 -1147 1149 0
881 1069 -1149 0
881 1147 -1149 0
1069 1147 -1149 0
-882 -1070 -1150 0
882 1070 -1150 0
-882 1070 1150 0
882 -1070 1150 0
-1150 -1149 -1102 0
1150 1149 -1102 0
-1150 1149 1102 0
1150 -1149 1102 0
-882 -1070 1151 0
-882 -1149 1151 0
-1070 -1149 1151 0
882 1070 -1151 0
882 1149 -1151 0
1070 1149 -1151 0
-883 -1071 -1152 0
883 1071 -1152 0
-883 1071 1152 0
883 -1071 1152 0
-1152 -1151 -1103 0
1152 1151 -1103 0
-1152 1151 1103 0
1152 -1151 1103 0
-883 -1071 1153 0
-883 -1151 1153 0
-1071 -1151 1153 0
883 1071 -1153 0
883 1151 -1153 0
1071 1151 -1153 0
-884 -1072 -1154 0
884 1072 -1154 0
-884 1072 1154 0
884 -1072 1154 0
-1154 -1153 -1104 0
1154 1153 -1104 0
-1154 1153 1104 0
1154 -1153 1104 0
-884 -1072 1155 0
-884 -1153 1155 0
-1072 -1153 1155 0
884 1072 -1155 0
884 1153 -1155 0
1072 1153 -1155 0
-885 -1073 -1156 0
885 1073 -1156 0
-885 1073 1156 0
885 -1073 1156 0
-1156 -1155 -1105 0
1156 1155 -1105 0
-1156 1155 1105 0
1156 -1155 1105 0
-885 -1073 1157 0
-885 -1155 1157 0
-1073 -1155 1157 0
885 1073 -1157 0
885 1155 -1157 0
1073 1155 -1157 0
-886 -1074 -1158 0
886 1074 -1158 0
-886 1074 1158 0
886 -1074 1158 0
-1158 -1157 -1106 0
1158 1157 -1106 0
-1158 1157 1106 0
1158 -1157 1106 0
-886 -1074 1159 0
-886 -1157 1159 0
-1074 -1157 1159 0
886 1074 -1159 0
886 1157 -1159 0
1074 1157 -1159 0
-887 -1075 -1160 0
887 1075 -1160 0
-887 1075 1160 0
887 -1075 1160 0
-1160 -1159 -1107 0
1160 1159 -1107 0
-1160 1159 1107 0
1160 -1159 1107 0
-887 -1075 1161 0
-887 -1159 1161 0
-1075 -1159 1161 0
887 1075 -1161 0
887 1159 -1161 0
1075 1159 -1161 0
-888 -1076 -1162 0
888 1076 -1162 0
-888 1076 1162 0
888 -1076 1162 0
-1162 -1161 -1108 0
1162 1161 -1108 0
-1162 1161 1108 0
1162 -1161 1108 0
-888 -1076 1163 0
-888 -1161 1163 0
-1076 -1161 1163 0
888 1076 -1163 0
888 1161 -1163 0
1076 1161 -1163 0
-889 -1077 -1164 0
889 1077 -1164 0
-889 1077 1164 0
889 -1077 1164 0
-1164 -1163 -1109 0
1164 1163 -1109 0
-1164 1163 1109 0
1164 -1163 1109 0
-889 -1077 1165 0
-889 -1163 1165 0
-1077 -1163 1165 0
889 1077 -1165 0
889 1163 -1165 0
1077 1163 -1165 0
-890 -1078 -1166 0
890 1078 -1166 0
-890 1078 1166 0
890 -1078 1166 0
-1166 -1165 -1110 0
1166 1165 -1110 0
-1166 1165 1110 0
1166 -1165 1110 0
-890 -1078 1167 0
-890 -1165 1167 0
-1078 -1165 1167 0
890 1078 -1167 0
890 1165 -1167 0
1078 1165 -1167 0
-891 -1079 -1168 0
891 1079 -1168 0
-891 1079 1168 0
891 -1079 1168 0
-1168 -1167 -1111 0
1168 1167 -1111 0
-1168 1167 1111 0
1168 -1167 1111 0
-891 -1079 1169 0
-891 -1167 1169 0
-1079 -1167 1169 0
891 1079 -1169 0
891 1167 -1169 0
1079 1167 -1169 0
-892 -1080 -1170 0
892 1080 -1170 0
-892 1080 1170 0
892 -1080 1170 0
-1170 -1169 -1112 0
1170 1169 -1112 0
-1170 1169 1112 0
1170 -1169 1112 0
-892 -1080 1171 0
-892 -1169 1171 0
-1080 -1169 1171 0
892 1080 -1171 0
892 1169 -1171 0
1080 1169 -1171 0
-893 -1081 -1172 0
893 1081 -1172 0
-893 1081 1172 0
893 -1081 1172 0
-1172 -1171 -1113 0
1172 1171 -1113 0
-1172 1171 1113 0
1172 -1171 1113 0
-893 -1081 1173 0
-893 -1171 1173 0
-1081 -1171 1173 0
893 1081 -1173 0
893 1171 -1173 0
1081 1171 -1173 0
-894 -1082 -1174 0
894 1082 -1174 0
-894 1082 1174 0
894 -1082 1174 0
-1174 -1173 -1114 0
1174 1173 -1114 0
-1174 1173 1114 0
1174 -1173 1114 0
-894 -1082 1175 0
-894 -1173 1175 0
-1082 -1173 1175 0
894 1082 -1175 0
894 1173 -1175 0
1082 1173 -1175 0
-895 -1083 -1176 0
895 1083 -1176 0
-895 1083 1176 0
895 -1083 1176 0
-1176 -1175 -1115 0
1176 1175 -1115 0
-1176 1175 1115 0
1176 -1175 1115 0
-895 -1083 1177 0
-895 -1175 1177 0
-1083 -1175 1177 0
895 1083 -1177 0
895 1175 -1177 0
1083 1175 -1177 0
-896 -1084 -1178 0
896 1084 -1178 0
-896 1084 1178 0
896 -1084 1178 0
-1178 -1177 -1116 0
1178 1177 -1116 0
-1178 1177 1116 0
1178 -1177 1116 0
-959 -1085 -1179 0
959 1085 -1179 0
-959 1085 1179 0
959 -1085 1179 0
-959 -1085 1211 0
959 -1211 0
1085 -1211 0
-960 -1086 -1212 0
960 1086 -1212 0
-960 1086 1212 0
960 -1086 1212 0
-1212 -1211 -1180 0
1212 1211 -1180 0
-1212 1211 1180 0
1212 -1211 1180 0
-960 -1086 1213 0
-960 -1211 1213 0
-1086 -1211 1213 0
960 1086 -1213 0
960 1211 -1213 0
1086 1211 -1213 0
-961 -1087 -1214 0
961 1087 -1214 0
-961 1087 1214 0
961 -1087 1214 0
-1214 -1213 -1181 0
1214 1213 -1181 0
-1214 1213 1181 0
1214 -1213 1181 0
-961 -1087 1215 0
-961 -1213 1215 0
-1087 -1213 1215 0
961 1087 -1215 0
961 1213 -1215 0
1087 1213 -1215 0
-962 -1088 -1216 0
962 1088 -1216 0
-962 1088 1216 0
962 -1088 1216 0
-1216 -1215 -1182 0
1216 1215 -1182 0
-1216 1215 1182 0
1216 -1215 1182 0
-962 -1088 1217 0
-962 -1215 1217 0
-1088 -1215 1217 0
962 1088 -1217 0
962 1215 -1217 0
1088 1215 -1217 0
-963 -1089 -1218 0
963 1089 -1218 0
-963 1089 1218 0
963 -1089 1218 0
-1218 -1217 -1183 0
1218 1217 -1183 0
-1218 1217 1183 0
1218 -1217 1183 0
-963 -1089 1219 0
-963 -1217 1219 0
-1089 -1217 1219 0
963 1089 -1219 0
963 1217 -1219 0
1089 1217 -1219 0
-964 -1090 -1220 0
964 1090 -1220 0
-964 1090 1220 0
964 -1090 1220 0
-1220 -1219 -1184 0
1220 1219 -1184 0
-1220 1219 1184 0
1220 -1219 1184 0
-964 -1090 1221 0
-964 -1219 1221 0
-1090 -1219 1221 0
964 1090 -1221 0
964 1219 -1221 0
1090 1219 -1221 0
-965 -1091 -1222 0
965 1091 -1222 0
-965 1091 1222 0
965 -1091 1222 0
-1222 -1221 -1185 0
1222 1221 -1185 0
-1222 1221 1185 0
1222 -1221 1185 0
-965 -1091 1223 0
-965 -1221 1223 0
-1091 -1221 1223 0
965 1091 -1223 0
965 1221 -1223 0
1091 1221 -1223 0
-966 -1092 -1224 0
966 1092 -1224 0
-966 1092 1224 0
966 -1092 1224 0
-1224 -1223 -1186 0
1224 1223 -1186 0
-1224 1223 1186 0
1224 -1223 1186 0
-966 -1092 1225 0
-966 -1223 1225 0
-1092 -1223 1225 0
966 1092 -1225 0
966 1223 -1225 0
1092 1223 -1225 0
-967 -1093 -1226 0
967 1093 -1226 0
-967 1093 1226 0
967 -1093 1226 0
-1226 -1225 -1187 0
1226 1225 -1187 0
-1226 1225 1187 0
1226 -1225 1187 0
-967 -1093 1227 0
-967 -1225 1227 0
-1093 -1225 1227 0
967 1093 -1227 0
967 1225 -1227 0
1093 1225 -1227 0
-968 -1094 -1228 0
968 1094 -1228 0
-968 1094 1228 0
968 -1094 1228 0
-1228 -1227 -1188 0
1228 1227 -1188 0
-1228 1227 1188 0
1228 -1227 1188 0
-968 -1094 1229 0
-968 -1227 1229 0
-1094 -1227 1229 0
968 1094 -1229 0
968 1227 -1229 0
1094 1227 -1229 0
-969 -1095 -1230 0
969 1095 -1230 0
-969 1095 1230 0
969 -1095 1230 0
-1230 -1229 -1189 0
1230 1229 -1189 0
-1230 1229 1189 0
1230 -1229 1189 0
-969 -1095 1231 0
-969 -1229 1231 0
-1095 -1229 1231 0
969 1095 -1231 0
969 1229 -1231 0
1095 1229 -1231 0
-970 -1096 -1232 0
970 1096 -1232 0
-970 1096 1232 0
970 -1096 1232 0
-1232 -1231 -1190 0
1232 1231 -1190 0
-1232 1231 1190 0
1232 -1231 1190 0
-970 -1096 1233 0
-970 -1231 1233 0
-1096 -1231 1233 0
970 1096 -1233 0
970 1231 -1233 0
1096 1231 -1233 0
-971 -1097 -1234 0
971 1097 -1234 0
-971 1097 1234 0
971 -1097 1234 0
-1234 -1233 -1191 0
1234 1233 -1191 0
-1234 1233 1191 0
1234 -1233 1191 0
-971 -1097 1235 0
-971 -1233 1235 0
-1097 -1233 1235 0
971 1097 -1235 0
971 1233 -1235 0
1097 1233 -1235 0
-972 -1098 -1236 0
972 1098 -1236 0
-972 1098 1236 0
972 -1098 1236 0
-1236 -1235 -1192 0
1236 1235 -1192 0
-1236 1235 1192 0
1236 -1235 1192 0
-972 -1098 1237 0
-972 -1235 1237 0
-1098 -1235 1237 0
972 1098 -1237 0
972 1235 -1237 0
1098 1235 -1237 0
-973 -1099 -1238 0
973 1099 -1238 0
-973 1099 1238 0
973 -1099 1238 0
-1238 -1237 -1193 0
1238 1237 -1193 0
-1238 1237 1193 0
1238 -1237 1193 0
-973 -1099 1239 0
-973 -1237 1239 0
-1099 -1237 1239 0
973 1099 -1239 0
973 1237 -1239 0
1099 1237 -1239 0
-974 -1100 -1240 0
974 1100 -1240 0
-974 1100 1240 0
974 -1100 1240 0
-1240 -1239 -1194 0
1240 1239 -1194 0
-1240 1239 1194 0
1240 -1239 1194 0
-974 -1100 1241 0
-974 -1239 1241 0
-1100 -1239 1241 0
974 1100 -1241 0
974 1239 -1241 0
1100 1239 -1241 0
-975 -1101 -1242 0
975 1101 -1242 0
-975 1101 1242 0
975 -1101 1242 0
-1242 -1241 -1195 0
1242 1241 -1195 0
-1242 1241 1195 0
1242 -1241 1195 0
-975 -1101 1243 0
-975 -1241 1243 0
-1101 -1241 1243 0
975 1101 -1243 0
975 1241 -1243 0
1101 1241 -1243 0
-976 -1102 -1244 0
976 1102 -1244 0
-976 1102 1244 0
976 -1102 1244 0
-1244 -1243 -1196 0
1244 1243 -1196 0
-1244 1243 1196 0
1244 -1243 1196 0
-976 -1102 1245 0
-976 -1243 1245 0
-1102 -1243 1245 0
976 1102 -1245 0
976 1243 -1245 0
1102 1243 -1245 0
-977 -1103 -1246 0
977 1103 -1246 0
-977 1103 1246 0
977 -1103 1246 0
-1246 -1245 -1197 0
1246 1245 -1197 0
-1246 1245 1197 0
1246 -1245 1197 0
-977 -1103 1247 0
-977 -1245 1247 0
-1103 -1245 1247 0
977 1103 -1247 0
977 1245 -1247 0
1103 1245 -1247 0
-978 -1104 -1248 0
978 1104 -1248 0
-978 1104 1248 0
978 -1104 1248 0
-1248 -1247 -1198 0
1248 1247 -1198 0
-1248 1247 1198 0
1248 -1247 1198 0
-978 -1104 1249 0
-978 -1247 1249 0
-1104 -1247 1249 0
978 1104 -1249 0
978 1247 -1249 0
1104 1247 -1249 0
-979 -1105 -1250 0
979 1105 -1250 0
-979 1105 1250 0
979 -1105 1250 0
-1250 -1249 -1199 0
1250 1249 -1199 0
-1250 1249 1199 0
1250 -1249 1199 0
-979 -1105 1251 0
-979 -1249 1251 0
-1105 -1249 1251 0
979 1105 -1251 0
979 1249 -1251 0
1105 1249 -1251 0
-980 -1106 -1252 0
980 1106 -1252 0
-980 1106 1252 0
980 -1106 1252 0
-1252 -1251 -1200 0
1252 1251 -1200 0
-1252 1251 1200 0
1252 -1251 1200 0
-980 -1106 1253 0
-980 -1251 1253 0
-1106 -1251 1253 0
980 1106 -1253 0
980 1251 -1253 0
1106 1251 -1253 0
-981 -1107 -1254 0
981 1107 -1254 0
-981 1107 1254 0
981 -1107 1254 0
-1254 -1253 -1201 0
1254 1253 -1201 0
-1254 1253 1201 0
1254 -1253 1201 0
-981 -1107 1255 0
-981 -1253 1255 0
-1107 -1253 1255 0
981 1107 -1255 0
981 1253 -1255 0
1107 1253 -1255 0
-982 -1108 -1256 0
982 1108 -1256 0
-982 1108 1256 0
982 -1108 1256 0
-1256 -1255 -1202 0
1256 1255 -1202 0
-1256 1255 1202 0
1256 -1255 1202 0
-982 -1108 1257 0
-982 -1255 1257 0
-1108 -1255 1257 0
982 1108 -1257 0
982 1255 -1257 0
1108 1255 -1257 0
-983 -1109 -1258 0
983 1109 -1258 0
-983 1109 1258 0
983 -1109 1258 0
-1258 -1257 -1203 0
1258 1257 -1203 0
-1258 1257 1203 0
1258 -1257 1203 0
-983 -1109 1259 0
-983 -1257 1259 0
-1109 -1257 1259 0
983 1109 -1259 0
983 1257 -1259 0
1109 1257 -1259 0
-984 -1110 -1260 0
984 1110 -1260 0
-984 1110 1260 0
984 -1110 1260 0
-1260 -1259 -1204 0
1260 1259 -1204 0
-1260 1259 1204 0
1260 -1259 1204 0
-984 -1110 1261 0
-984 -1259 1261 0
-1110 -1259 1261 0
984 1110 -1261 0
984 1259 -1261 0
1110 1259 -1261 0
-985 -1111 -1262 0
985 1111 -1262 0
-985 1111 1262 0
985 -1111 1262 0
-1262 -1261 -1205 0
1262 1261 -1205 0
-1262 1261 1205 0
1262 -1261 1205 0
-985 -1111 1263 0
-985 -1261 1263 0
-1111 -1261 1263 0
985 1111 -1263 0
985 1261 -1263 0
1111 1261 -1263 0
-986 -1112 -1264 0
986 1112 -1264 0
-986 1112 1264 0
986 -1112 1264 0
-1264 -1263 -1206 0
1264 1263 -1206 0
-1264 1263 1206 0
1264 -1263 1206 0
-986 -1112 1265 0
-986 -1263 1265 0
-1112 -1263 1265 0
986 1112 -1265 0
986 1263 -1265 0
1112 1263 -1265 0
-987 -1113 -1266 0
987 1113 -1266 0
-987 1113 1266 0
987 -1113 1266 0
-1266 -1265 -1207 0
1266 1265 -1207 0
-1266 1265 1207 0
1266 -1265 1207 0
-987 -1113 1267 0
-987 -1265 1267 0
-1113 -1265 1267 0
987 1113 -1267 0
987 1265 -1267 0
1113 1265 -1267 0
-988 -1114 -1268 0
988 1114 -1268 0
-988 1114 1268 0
988 -1114 1268 0
-1268 -1267 -1208 0
1268 1267 -1208 0
-1268 1267 1208 0
1268 -1267 1208 0
-988 -1114 1269 0
-988 -1267 1269 0
-1114 -1267 1269 0
988 1114 -1269 0
988 1267 -1269 0
1114 1267 -1269 0
-989 -1115 -1270 0
989 1115 -1270 0
-989 1115 1270 0
989 -1115 1270 0
-1270 -1269 -1209 0
1270 1269 -1209 0
-1270 1269 1209 0
1270 -1269 1209 0
-989 -1115 1271 0
-989 -1269 1271 0
-1115 -1269 1271 0
989 1115 -1271 0
989 1269 -1271 0
1115 1269 -1271 0
-990 -1116 -1272 0
990 1116 -1272 0
-990 1116 1272 0
990 -1116 1272 0
-1272 -1271 -1210 0
1272 1271 -1210 0
-1272 1271 1210 0
1272 -1271 1210 0
-515 -526 -1305 0
515 526 -1305 0
-515 526 1305 0
515 -526 1305 0
-1305 -535 -1273 0
1305 535 -1273 0
-1305 535 1273 0
1305 -535 1273 0
-516 -527 -1306 0
516 527 -1306 0
-516 527 1306 0
516 -527 1306 0
-1306 -536 -1274 0
1306 536 -1274 0
-1306 536 1274 0
1306 -536 1274 0
-517 -528 -1307 0
517 528 -1307 0
-517 528 1307 0
517 -528 1307 0
-1307 -537 -1275 0
1307 537 -1275 0
-1307 537 1275 0
1307 -537 1275 0
-518 -529 -1308 0
518 529 -1308 0
-518 529 1308 0
518 -529 1308 0
-1308 -538 -1276 0
1308 538 -1276 0
-1308 538 1276 0
1308 -538 1276 0
-519 -530 -1309 0
519 530 -1309 0
-519 530 1309 0
519 -530 1309 0
-1309 -539 -1277 0
1309 539 -1277 0
-1309 539 1277 0
1309 -539 1277 0
-520 -531 -1310 0
520 531 -1310 0
-520 531 1310 0
520 -531 1310 0
-1310 -540 -1278 0
1310 540 -1278 0
-1310 540 1278 0
1310 -540 1278 0
-521 -532 -1311 0
521 532 -1311 0
-521 532 1311 0
521 -532 1311 0
-1311 -541 -1279 0
1311 541 -1279 0
-1311 541 1279 0
1311 -541 1279 0
-522 -533 -1312 0
522 533 -1312 0
-522 533 1312 0
522 -533 1312 0
-1312 -542 -1280 0
1312 542 -1280 0
-1312 542 1280 0
1312 -542 1280 0
-523 -534 -1313 0
523 534 -1313 0
-523 534 1313 0
523 -534 1313 0
-1313 -543 -1281 0
1313 543 -1281 0
-1313 543 1281 0
1313 -543 1281 0
-524 -535 -1314 0
524 535 -1314 0
-524 535 1314 0
524 -535 1314 0
-1314 -544 -1282 0
1314 544 -1282 0
-1314 544 1282 0
1314 -544 1282 0
-525 -536 -1315 0
525 536 -1315 0
-525 536 1315 0
525 -536 1315 0
-1315 -513 -1283 0
1315 513 -1283 0
-1315 513 1283 0
1315 -513 1283 0
-526 -537 -1316 0
526 537 -1316 0
-526 537 1316 0
526 -537 1316 0
-1316 -514 -1284 0
1316 514 -1284 0
-1316 514 1284 0
1316 -514 1284 0
-527 -538 -1317 0
527 538 -1317 0
-527 538 1317 0
527 -538 1317 0
-1317 -515 -1285 0
1317 515 -1285 0
-1317 515 1285 0
1317 -515 1285 0
-528 -539 -1318 0
528 539 -1318 0
-528 539 1318 0
528 -539 1318 0
-1318 -516 -1286 0
1318 516 -1286 0
-1318 516 1286 0
1318 -516 1286 0
-529 -540 -1319 0
529 540 -1319 0
-529 540 1319 0
529 -540 1319 0
-1319 -517 -1287 0
1319 517 -1287 0
-1319 517 1287 0
1319 -517 1287 0
-530 -541 -1320 0
530 541 -1320 0
-530 541 1320 0
530 -541 1320 0
-1320 -518 -1288 0
1320 518 -1288 0
-1320 518 1288 0
1320 -518 1288 0
-531 -542 -1321 0
531 542 -1321 0
-531 542 1321 0
531 -542 1321 0
-1321 -519 -1289 0
1321 519 -1289 0
-1321 519 1289 0
1321 -519 1289 0
-532 -543 -1322 0
532 543 -1322 0
-532 543 1322 0
532 -543 1322 0
-1322 -520 -1290 0
1322 520 -1290 0
-1322 520 1290 0
1322 -520 1290 0
-533 -544 -1323 0
533 544 -1323 0
-533 544 1323 0
533 -544 1323 0
-1323 -521 -1291 0
1323 521 -1291 0
-1323 521 1291 0
1323 -521 1291 0
-534 -513 -1324 0
534 513 -1324 0
-534 513 1324 0
534 -513 1324 0
-1324 -522 -1292 0
1324 522 -1292 0
-1324 522 1292 0
1324 -522 1292 0
-535 -514 -1325 0
535 514 -1325 0
-535 514 1325 0
535 -514 1325 0
-1325 -523 -1293 0
1325 523 -1293 0
-1325 523 1293 0
1325 -523 1293 0
-536 -515 -1326 0
536 515 -1326 0
-536 515 1326 0
536 -515 1326 0
-1326 -524 -1294 0
1326 524 -1294 0
-1326 524 1294 0
1326 -524 1294 0
-537 -516 -1327 0
537 516 -1327 0
-537 516 1327 0
537 -516 1327 0
-1327 -525 -1295 0
1327 525 -1295 0
-1327 525 1295 0
1327 -525 1295 0
-538 -517 -1328 0
538 517 -1328 0
-538 517 1328 0
538 -517 1328 0
-1328 -526 -1296 0
1328 526 -1296 0
-1328 526 1296 0
1328 -526 1296 0
-539 -518 -1329 0
539 518 -1329 0
-539 518 1329 0
539 -518 1329 0
-1329 -527 -1297 0
1329 527 -1297 0
-1329 527 1297 0
1329 -527 1297 0
-540 -519 -1330 0
540 519 -1330 0
-540 519 1330 0
540 -519 1330 0
-1330 -528 -1298 0
1330 528 -1298 0
-1330 528 1298 0
1330 -528 1298 0
-541 -520 -1331 0
541 520 -1331 0
-541 520 1331 0
541 -520 1331 0
-1331 -529 -1299 0
1331 529 -1299 0
-1331 529 1299 0
1331 -529 1299 0
-542 -521 -1332 0
542 521 -1332 0
-542 521 1332 0
542 -521 1332 0
-1332 -530 -1300 0
1332 530 -1300 0
-1332 530 1300 0
1332 -530 1300 0
-543 -522 -1333 0
543 522 -1333 0
-543 522 1333 0
543 -522 1333 0
-1333 -531 -1301 0
1333 531 -1301 0
-1333 531 1301 0
1333 -531 1301 0
-544 -523 -1334 0
544 523 -1334 0
-544 523 1334 0
544 -523 1334 0
-1334 -532 -1302 0
1334 532 -1302 0
-1334 532 1302 0
1334 -532 1302 0
-513 -524 -1335 0
513 524 -1335 0
-513 524 1335 0
513 -524 1335 0
-1335 -533 -1303 0
1335 533 -1303 0
-1335 533 1303 0
1335 -533 1303 0
-514 -525 -1336 0
514 525 -1336 0
-514 525 1336 0
514 -525 1336 0
-1336 -534 -1304 0
1336 534 -1304 0
-1336 534 1304 0
1336 -534 1304 0
-513 -545 1337 0
-513 -577 1337 0
-545 -577 1337 0
513 545 -1337 0
513 577 -1337 0
545 577 -1337 0
-514 -546 1338 0
-514 -578 1338 0
-546 -578 1338 0
514 546 -1338 0
514 578 -1338 0
546 578 -1338 0
-515 -547 1339 0
-515 -579 1339 0
-547 -579 1339 0
515 547 -1339 0
515 579 -1339 0
547 579 -1339 0
-516 -548 1340 0
-516 -580 1340 0
-548 -580 1340 0
516 548 -1340 0
516 580 -1340 0
548 580 -1340 0
-517 -549 1341 0
-517 -581 1341 0
-549 -581 1341 0
517 549 -1341 0
517 581 -1341 0
549 581 -1341 0
-518 -550 1342 0
-518 -582 1342 0
-550 -582 1342 0
518 550 -1342 0
518 582 -1342 0
550 582 -1342 0
-519 -551 1343 0
-519 -583 1343 0
-551 -583 1343 0
519 551 -1343 0
519 583 -1343 0
551 583 -1343 0
-520 -552 1344 0
-520 -584 1344 0
-552 -584 1344 0
520 552 -1344 0
520 584 -1344 0
552 584 -1344 0
-521 -553 1345 0
-521 -585 1345 0
-553 -585 1345 0
521 553 -1345 0
521 585 -1345 0
553 585 -1345 0
-522 -554 1346 0
-522 -586 1346 0
-554 -586 1346 0
522 554 -1346 0
522 586 -1346 0
554 586 -1346 0
-523 -555 1347 0
-523 -587 1347 0
-555 -587 1347 0
523 555 -1347 0
523 587 -1347 0
555 587 -1347 0
-524 -556 1348 0
-524 -588 1348 0
-556 -588 1348 0
524 556 -1348 0
524 588 -1348 0
556 588 -1348 0
-525 -557 1349 0
-525 -589 1349 0
-557 -589 1349 0
525 557 -1349 0
525 589 -1349 0
557 589 -1349 0
-526 -558 1350 0
-526 -590 1350 0
-558 -590 1350 0
526 558 -1350 0
526 590 -1350 0
558 590 -1350 0
-527 -559 1351 0
-527 -591 1351 0
-559 -591 1351 0
527 559 -1351 0
527 591 -1351 0
559 591 -1351 0
-528 -560 1352 0
-528 -592 1352 0
-560 -592 1352 0
528 560 -1352 0
528 592 -1352 0
560 592 -1352 0
-529 -561 1353 0
-529 -593 1353 0
-561 -593 1353 0
529 561 -1353 0
529 593 -1353 0
561 593 -1353 0
-530 -562 1354 0
-530 -594 1354 0
-562 -594 1354 0
530 562 -1354 0
530 594 -1354 0
562 594 -1354 0
-531 -563 1355 0
-531 -595 1355 0
-563 -595 1355 0
531 563 -1355 0
531 595 -1355 0
563 595 -1355 0
-532 -564 1356 0
-532 -596 1356 0
-564 -596 1356 0
532 564 -1356 0
532 596 -1356 0
564 596 -1356 0
-533 -565 1357 0
-533 -597 1357 0
-565 -597 1357 0
533 565 -1357 0
533 597 -1357 0
565 597 -1357 0
-534 -566 1358 0
-534 -598 1358 0
-566 -598 1358 0
534 566 -1358 0
534 598 -1358 0
566 598 -1358 0
-535 -567 1359 0
-535 -599 1359 0
-567 -599 1359 0
535 567 -1359 0
535 599 -1359 0
567 599 -1359 0
-536 -568 1360 0
-536 -600 1360 0
-568 -600 1360 0
536 568 -1360 0
536 600 -1360 0
568 600 -1360 0
-537 -569 1361 0
-537 -601 1361 0
-569 -601 1361 0
537 569 -1361 0
537 601 -1361 0
569 601 -1361 0
-538 -570 1362 0
-538 -602 1362 0
-570 -602 1362 0
538 570 -1362 0
538 602 -1362 0
570 602 -1362 0
-539 -571 1363 0
-539 -603 1363 0
-571 -603 1363 0
539 571 -1363 0
539 603 -1363 0
571 603 -1363 0
-540 -572 1364 0
-540 -604 1364 0
-572 -604 1364 0
540 572 -1364 0
540 604 -1364 0
572 604 -1364 0
-541 -573 1365 0
-541 -605 1365 0
-573 -605 1365 0
541 573 -1365 0
541 605 -1365 0
573 605 -1365 0
-542 -574 1366 0
-542 -606 1366 0
-574 -606 1366 0
542 574 -1366 0
542 606 -1366 0
574 606 -1366 0
-543 -575 1367 0
-543 -607 1367 0
-575 -607 1367 0
543 575 -1367 0
543 607 -1367 0
575 607 -1367 0
-544 -576 1368 0
-544 -608 1368 0
-576 -608 1368 0
544 576 -1368 0
544 608 -1368 0
576 608 -1368 0
-1273 -1337 -1369 0
1273 1337 -1369 0
-1273 1337 1369 0
1273 -1337 1369 0
-1273 -1337 1401 0
1273 -1401 0
1337 -1401 0
-1274 -1338 -1402 0
1274 1338 -1402 0
-1274 1338 1402 0
1274 -1338 1402 0
-1402 -1401 -1370 0
1402 1401 -1370 0
-1402 1401 1370 0
1402 -1401 1370 0
-1274 -1338 1403 0
-1274 -1401 1403 0
-1338 -1401 1403 0
1274 1338 -1403 0
1274 1401 -1403 0
1338 1401 -1403 0
-1275 -1339 -1404 0
1275 1339 -1404 0
-1275 1339 1404 0
1275 -1339 1404 0
-1404 -1403 -1371 0
1404 1403 -1371 0
-1404 1403 1371 0
1404 -1403 1371 0
-1275 -1339 1405 0
-1275 -1403 1405 0
-1339 -1403 1405 0
1275 1339 -1405 0
1275 1403 -1405 0
1339 1403 -1405 0
-1276 -1340 -1406 0
1276 1340 -1406 0
-1276 1340 1406 0
1276 -1340 1406 0
-1406 -1405 -1372 0
1406 1405 -1372 0
-1406 1405 1372 0
1406 -1405 1372 0
-1276 -1340 1407 0
-1276 -1405 1407 0
-1340 -1405 1407 0
1276 1340 -1407 0
1276 1405 -1407 0
1340 1405 -1407 0
-1277 -1341 -1408 0
1277 1341 -1408 0
-1277 1341 1408 0
1277 -1341 1408 0
-1408 -1407 -1373 0
1408 1407 -1373 0
-1408 1407 1373 0
1408 -1407 1373 0
-1277 -1341 1409 0
-1277 -1407 1409 0
-1341 -1407 1409 0
1277 1341 -1409 0
1277 1407 -1409 0
1341 1407 -1409 0
-1278 -1342 -1410 0
1278 1342 -1410 0
-1278 1342 1410 0
1278 -1342 1410 0
-1410 -1409 -1374 0
1410 1409 -1374 0
-1410 1409 1374 0
1410 -1409 1374 0
-1278 -1342 1411 0
-1278 -1409 1411 0
-1342 -1409 1411 0
1278 1342 -1411 0
1278 1409 -1411 0
1342 1409 -1411 0
-1279 -1343 -1412 0
1279 1343 -1412 0
-1279 1343 1412 0
1279 -1343 1412 0
-1412 -1411 -1375 0
1412 1411 -1375 0
-1412 1411 1375 0
1412 -1411 1375 0
-1279 -1343 1413 0
-1279 -1411 1413 0
-1343 -1411 1413 0
1279 1343 -1413 0
1279 1411 -1413 0
1343 1411 -1413 0
-1280 -1344 -1414 0
1280 1344 -1414 0
-1280 1344 1414 0
1280 -1344 1414 0
-1414 -1413 -1376 0
1414 1413 -1376 0
-1414 1413 1376 0
1414 -1413 1376 0
-1280 -1344 1415 0
-1280 -1413 1415 0
-1344 -1413 1415 0
1280 1344 -1415 0
1280 1413 -1415 0
1344 1413 -1415 0
-1281 -1345 -1416 0
1281 1345 -1416 0
-1281 1345 1416 0
1281 -1345 1416 0
-1416 -1415 -1377 0
1416 1415 -1377 0
-1416 1415 1377 0
1416 -1415 1377 0
-1281 -1345 1417 0
-1281 -1415 1417 0
-1345 -1415 1417 0
1281 1345 -1417 0
1281 1415 -1417 0
1345 1415 -1417 0
-1282 -1346 -1418 0
1282 1346 -1418 0
-1282 1346 1418 0
1282 -1346 1418 0
-1418 -1417 -1378 0
1418 1417 -1378 0
-1418 1417 1378 0
1418 -1417 1378 0
-1282 -1346 1419 0
-1282 -1417 1419 0
-1346 -1417 1419 0
1282 1346 -1419 0
1282 1417 -1419 0
1346 1417 -1419 0
-1283 -1347 -1420 0
1283 1347 -1420 0
-1283 1347 1420 0
1283 -1347 1420 0
-1420 -1419 -1379 0
1420 1419 -1379 0
-1420 1419 1379 0
1420 -1419 1379 0
-1283 -1347 1421 0
-1283 -1419 1421 0
-1347 -1419 1421 0
1283 1347 -1421 0
1283 1419 -1421 0
1347 1419 -1421 0
-1284 -1348 -1422 0
1284 1348 -1422 0
-1284 1348 1422 0
1284 -1348 1422 0
-1422 -1421 -1380 0
1422 1421 -1380 0
-1422 1421 1380 0
1422 -1421 1380 0
-1284 -1348 1423 0
-1284 -1421 1423 0
-1348 -1421 1423 0
1284 1348 -1423 0
1284 1421 -1423 0
1348 1421 -1423 0
-1285 -1349 -1424 0
1285 1349 -1424 0
-1285 1349 1424 0
1285 -1349 1424 0
-1424 -1423 -1381 0
1424 1423 -1381 0
-1424 1423 1381 0
1424 -1423 1381 0
-1285 -1349 1425 0
-1285 -1423 1425 0
-1349 -1423 1425 0
1285 1349 -1425 0
1285 1423 -1425 0
1349 1423 -1425 0
-1286 -1350 -1426 0
1286 1350 -1426 0
-1286 1350 1426 0
1286 -1350 1426 0
-1426 -1425 -1382 0
1426 1425 -1382 0
-1426 1425 1382 0
1426 -1425 1382 0
-1286 -1350 1427 0
-1286 -1425 1427 0
-1350 -1425 1427 0
1286 1350 -1427 0
1286 1425 -1427 0
1350 1425 -1427 0
-1287 -1351 -1428 0
1287 1351 -1428 0
-1287 1351 1428 0
1287 -1351 1428 0
-1428 -1427 -1383 0
1428 1427 -1383 0
-1428 1427 1383 0
1428 -1427 1383 0
-1287 -1351 1429 0
-1287 -1427 1429 0
-1351 -1427 1429 0
1287 1351 -1429 0
1287 1427 -1429 0
1351 1427 -1429 0
-1288 -1352 -1430 0
1288 1352 -1430 0
-1288 1352 1430 0
1288 -1352 1430 0
-1430 -1429 -1384 0
1430 1429 -1384 0
-1430 1429 1384 0
1430 -1429 1384 0
-1288 -1352 1431 0
-1288 -1429 1431 0
-1352 -1429 1431 0
1288 1352 -1431 0
1288 1429 -1431 0
1352 1429 -1431 0
-1289 -1353 -1432 0
1289 1353 -1432 0
-1289 1353 1432 0
1289 -1353 1432 0
-1432 -1431 -1385 0
1432 1431 -1385 0
-1432 1431 1385 0
1432 -1431 1385 0
-1289 -1353 1433 0
-1289 -1431 1433 0
-1353 -1431 1433 0
1289 1353 -1433 0
1289 1431 -1433 0
1353 1431 -1433 0
-1290 -1354 -1434 0
1290 1354 -1434 0
-1290 1354 1434 0
1290 -1354 1434 0
-1434 -1433 -1386 0
1434 1433 -1386 0
-1434 1433 1386 0
1434 -1433 1386 0
-1290 -1354 1435 0
-1290 -1433 1435 0
-1354 -1433 1435 0
1290 1354 -1435 0
1290 1433 -1435 0
1354 1433 -1435 0
-1291 -1355 -1436 0
1291 1355 -1436 0
-1291 1355 1436 0
1291 -1355 1436 0
-1436 -1435 -1387 0
1436 1435 -1387 0
-1436 1435 1387 0
1436 -1435 1387 0
-1291 -1355 1437 0
-1291 -1435 1437 0
-1355 -1435 1437 0
1291 1355 -1437 0
1291 1435 -1437 0
1355 1435 -1437 0
-1292 -1356 -1438 0
1292 1356 -1438 0
-1292 1356 1438 0
1292 -1356 1438 0
-1438 -1437 -1388 0
1438 1437 -1388 0
-1438 1437 1388 0
1438 -1437 1388 0
-1292 -1356 1439 0
-1292 -1437 1439 0
-1356 -1437 1439 0
1292 1356 -1439 0
1292 1437 -1439 0
1356 1437 -1439 0
-1293 -1357 -1440 0
1293 1357 -1440 0
-1293 1357 1440 0
1293 -1357 1440 0
-1440 -1439 -1389 0
1440 1439 -1389 0
-1440 1439 1389 0
1440 -1439 1389 0
-1293 -1357 1441 0
-1293 -1439 1441 0
-1357 -1439 1441 0
1293 1357 -1441 0
1293 1439 -1441 0
1357 1439 -1441 0
-1294 -1358 -1442 0
1294 1358 -1442 0
-1294 1358 1442 0
1294 -1358 1442 0
-1442 -1441 -1390 0
1442 1441 -1390 0
-1442 1441 1390 0
1442 -1441 1390 0
-1294 -1358 1443 0
-1294 -1441 1443 0
-1358 -1441 1443 0
1294 1358 -1443 0
1294 1441 -1443 0
1358 1441 -1443 0
-1295 -1359 -1444 0
1295 1359 -1444 0
-1295 1359 1444 0
1295 -1359 1444 0
-1444 -1443 -1391 0
1444 1443 -1391 0
-1444 1443 1391 0
1444 -1443 1391 0
-1295 -1359 1445 0
-1295 -1443 1445 0
-1359 -1443 1445 0
1295 1359 -1445 0
1295 1443 -1445 0
1359 1443 -1445 0
-1296 -1360 -1446 0
1296 1360 -1446 0
-1296 1360 1446 0
1296 -1360 1446 0
-1446 -1445 -1392 0
1446 1445 -1392 0
-1446 1445 1392 0
1446 -1445 1392 0
-1296 -1360 1447 0
-1296 -1445 1447 0
-1360 -1445 1447 0
1296 1360 -1447 0
1296 1445 -1447 0
1360 1445 -1447 0
-1297 -1361 -1448 0
1297 1361 -1448 0
-1297 1361 1448 0
1297 -1361 1448 0
-1448 -1447 -1393 0
1448 1447 -1393 0
-1448 1447 1393 0
1448 -1447 1393 0
-1297 -1361 1449 0
-1297 -1447 1449 0
-1361 -1447 1449 0
1297 1361 -1449 0
1297 1447 -1449 0
1361 1447 -1449 0
-1298 -1362 -1450 0
1298 1362 -1450 0
-1298 1362 1450 0
1298 -1362 1450 0
-1450 -1449 -1394 0
1450 1449 -1394 0
-1450 1449 1394 0
1450 -1449 1394 0
-1298 -1362 1451 0
-1298 -1449 1451 0
-1362 -1449 1451 0
1298 1362 -1451 0
1298 1449 -1451 0
1362 1449 -1451 0
-1299 -1363 -1452 0
1299 1363 -1452 0
-1299 1363 1452 0
1299 -1363 1452 0
-1452 -1451 -1395 0
1452 1451 -1395 0
-1452 1451 1395 0
1452 -1451 1395 0
-1299 -1363 1453 0
-1299 -1451 1453 0
-1363 -1451 1453 0
1299 1363 -1453 0
1299 1451 -1453 0
1363 1451 -1453 0
-1300 -1364 -1454 0
1300 1364 -1454 0
-1300 1364 1454 0
1300 -1364 1454 0
-1454 -1453 -1396 0
1454 1453 -1396 0
-1454 1453 1396 0
1454 -1453 1396 0
-1300 -1364 1455 0
-1300 -1453 1455 0
-1364 -1453 1455 0
1300 1364 -1455 0
1300 1453 -1455 0
1364 1453 -1455 0
-1301 -1365 -1456 0
1301 1365 -1456 0
-1301 1365 1456 0
1301 -1365 1456 0
-1456 -1455 -1397 0
1456 1455 -1397 0
-1456 1455 1397 0
1456 -1455 1397 0
-1301 -1365 1457 0
-1301 -1455 1457 0
-1365 -1455 1457 0
1301 1365 -1457 0
1301 1455 -1457 0
1365 1455 -1457 0
-1302 -1366 -1458 0
1302 1366 -1458 0
-1302 1366 1458 0
1302 -1366 1458 0
-1458 -1457 -1398 0
1458 1457 -1398 0
-1458 1457 1398 0
1458 -1457 1398 0
-1302 -1366 1459 0
-1302 -1457 1459 0
-1366 -1457 1459 0
1302 1366 -1459 0
1302 1457 -1459 0
1366 1457 -1459 0
-1303 -1367 -1460 0
1303 1367 -1460 0
-1303 1367 1460 0
1303 -1367 1460 0
-1460 -1459 -1399 0
1460 1459 -1399 0
-1460 1459 1399 0
1460 -1459 1399 0
-1303 -1367 1461 0
-1303 -1459 1461 0
-1367 -1459 1461 0
1303 1367 -1461 0
1303 1459 -1461 0
1367 1459 -1461 0
-1304 -1368 -1462 0
1304 1368 -1462 0
-1304 1368 1462 0
1304 -1368 1462 0
-1462 -1461 -1400 0
1462 1461 -1400 0
-1462 1461 1400 0
1462 -1461 1400 0
-609 -1179 -1463 0
609 1179 -1463 0
-609 1179 1463 0
609 -1179 1463 0
-609 -1179 1495 0
609 -1495 0
1179 -1495 0
-610 -1180 -1496 0
610 1180 -1496 0
-610 1180 1496 0
610 -1180 1496 0
-1496 -1495 -1464 0
1496 1495 -1464 0
-1496 1495 1464 0
1496 -1495 1464 0
-610 -1180 1497 0
-610 -1495 1497 0
-1180 -1495 1497 0
610 1180 -1497 0
610 1495 -1497 0
1180 1495 -1497 0
-611 -1181 -1498 0
611 1181 -1498 0
-611 1181 1498 0
611 -1181 1498 0
-1498 -1497 -1465 0
1498 1497 -1465 0
-1498 1497 1465 0
1498 -1497 1465 0
-611 -1181 1499 0
-611 -1497 1499 0
-1181 -1497 1499 0
611 1181 -1499 0
611 1497 -1499 0
1181 1497 -1499 0
-612 -1182 -1500 0
612 1182 -1500 0
-612 1182 1500 0
612 -1182 1500 0
-1500 -1499 -1466 0
1500 1499 -1466 0
-1500 1499 1466 0
1500 -1499 1466 0
-612 -1182 1501 0
-612 -1499 1501 0
-1182 -1499 1501 0
612 1182 -1501 0
612 1499 -1501 0
1182 1499 -1501 0
-613 -1183 -1502 0
613 1183 -1502 0
-613 1183 1502 0
613 -1183 1502 0
-1502 -1501 -1467 0
1502 1501 -1467 0
-1502 1501 1467 0
1502 -1501 1467 0
-613 -1183 1503 0
-613 -1501 1503 0
-1183 -1501 1503 0
613 1183 -1503 0
613 1501 -1503 0
1183 1501 -1503 0
-614 -1184 -1504 0
614 1184 -1504 0
-614 1184 1504 0
614 -1184 1504 0
-1504 -1503 -1468 0
1504 1503 -1468 0
-1504 1503 1468 0
1504 -1503 1468 0
-614 -1184 1505 0
-614 -1503 1505 0
-1184 -1503 1505 0
614 1184 -1505 0
614 1503 -1505 0
1184 1503 -1505 0
-615 -1185 -1506 0
615 1185 -1506 0
-615 1185 1506 0
615 -1185 1506 0
-1506 -1505 -1469 0
1506 1505 -1469 0
-1506 1505 1469 0
1506 -1505 1469 0
-615 -1185 1507 0
-615 -1505 1507 0
-1185 -1505 1507 0
615 1185 -1507 0
615 1505 -1507 0
1185 1505 -1507 0
-616 -1186 -1508 0
616 1186 -1508 0
-616 1186 1508 0
616 -1186 1508 0
-1508 -1507 -1470 0
1508 1507 -1470 0
-1508 1507 1470 0
1508 -1507 1470 0
-616 -1186 1509 0
-616 -1507 1509 0
-1186 -1507 1509 0
616 1186 -1509 0
616 1507 -1509 0
1186 1507 -1509 0
-617 -1187 -1510 0
617 1187 -1510 0
-617 1187 1510 0
617 -1187 1510 0
-1510 -1509 -1471 0
1510 1509 -1471 0
-1510 1509 1471 0
1510 -1509 1471 0
-617 -1187 1511 0
-617 -1509 1511 0
-1187 -1509 1511 0
617 1187 -1511 0
617 1509 -1511 0
1187 1509 -1511 0
-618 -1188 -1512 0
618 1188 -1512 0
-618 1188 1512 0
618 -1188 1512 0
-1512 -1511 -1472 0
1512 1511 -1472 0
-1512 1511 1472 0
1512 -1511 1472 0
-618 -1188 1513 0
-618 -1511 1513 0
-1188 -1511 1513 0
618 1188 -1513 0
618 1511 -1513 0
1188 1511 -1513 0
-619 -1189 -1514 0
619 1189 -1514 0
-619 1189 1514 0
619 -1189 1514 0
-1514 -1513 -1473 0
1514 1513 -1473 0
-1514 1513 1473 0
1514 -1513 1473 0
-619 -1189 1515 0
-619 -1513 1515 0
-1189 -1513 1515 0
619 1189 -1515 0
619 1513 -1515 0
1189 1513 -1515 0
-620 -1190 -1516 0
620 1190 -1516 0
-620 1190 1516 0
620 -1190 1516 0
-1516 -1515 -1474 0
1516 1515 -1474 0
-1516 1515 1474 0
1516 -1515 1474 0
-620 -1190 1517 0
-620 -1515 1517 0
-1190 -1515 1517 0
620 1190 -1517 0
620 1515 -1517 0
1190 1515 -1517 0
-621 -1191 -1518 0
621 1191 -1518 0
-621 1191 1518 0
621 -1191 1518 0
-1518 -1517 -1475 0
1518 1517 -1475 0
-1518 1517 1475 0
1518 -1517 1475 0
-621 -1191 1519 0
-621 -1517 1519 0
-1191 -1517 1519 0
621 1191 -1519 0
621 1517 -1519 0
1191 1517 -1519 0
-622 -1192 -1520 0
622 1192 -1520 0
-622 1192 1520 0
622 -1192 1520 0
-1520 -1519 -1476 0
1520 1519 -1476 0
-1520 1519 1476 0
1520 -1519 1476 0
-622 -1192 1521 0
-622 -1519 1521 0
-1192 -1519 1521 0
622 1192 -1521 0
622 1519 -1521 0
1192 1519 -1521 0
-623 -1193 -1522 0
623 1193 -1522 0
-623 1193 1522 0
623 -1193 1522 0
-1522 -1521 -1477 0
1522 1521 -1477 0
-1522 1521 1477 0
1522 -1521 1477 0
-623 -1193 1523 0
-623 -1521 1523 0
-1193 -1521 1523 0
623 1193 -1523 0
623 1521 -1523 0
1193 1521 -1523 0
-624 -1194 -1524 0
624 1194 -1524 0
-624 1194 1524 0
624 -1194 1524 0
-1524 -1523 -1478 0
1524 1523 -1478 0
-1524 1523 1478 0
1524 -1523 1478 0
-624 -1194 1525 0
-624 -1523 1525 0
-1194 -1523 1525 0
624 1194 -1525 0
624 1523 -1525 0
1194 1523 -1525 0
-625 -1195 -1526 0
625 1195 -1526 0
-625 1195 1526 0
625 -1195 1526 0
-1526 -1525 -1479 0
1526 1525 -1479 0
-1526 1525 1479 0
1526 -1525 1479 0
-625 -1195 1527 0
-625 -1525 1527 0
-1195 -1525 1527 0
625 1195 -1527 0
625 1525 -1527 0
1195 1525 -1527 0
-626 -1196 -1528 0
626 1196 -1528 0
-626 1196 1528 0
626 -1196 1528 0
-1528 -1527 -1480 0
1528 1527 -1480 0
-1528 1527 1480 0
1528 -1527 1480 0
-626 -1196 1529 0
-626 -1527 1529 0
-1196 -1527 1529 0
626 1196 -1529 0
626 1527 -1529 0
1196 1527 -1529 0
-627 -1197 -1530 0
627 1197 -1530 0
-627 1197 1530 0
627 -1197 1530 0
-1530 -1529 -1481 0
1530 1529 -1481 0
-1530 1529 1481 0
1530 -1529 1481 0
-627 -1197 1531 0
-627 -1529 1531 0
-1197 -1529 1531 0
627 1197 -1531 0
627 1529 -1531 0
1197 1529 -1531 0
-628 -1198 -1532 0
628 1198 -1532 0
-628 1198 1532 0
628 -1198 1532 0
-1532 -1531 -1482 0
1532 1531 -1482 0
-1532 1531 1482 0
1532 -1531 1482 0
-628 -1198 1533 0
-628 -1531 1533 0
-1198 -1531 1533 0
628 1198 -1533 0
628 1531 -1533 0
1198 1531 -1533 0
-629 -1199 -1534 0
629 1199 -1534 0
-629 1199 1534 0
629 -1199 1534 0
-1534 -1533 -1483 0
1534 1533 -1483 0
-1534 1533 1483 0
1534 -1533 1483 0
-629 -1199 1535 0
-629 -1533 1535 0
-1199 -1533 1535 0
629 1199 -1535 0
629 1533 -1535 0
1199 1533 -1535 0
-630 -1200 -1536 0
630 1200 -1536 0
-630 1200 1536 0
630 -1200 1536 0
-1536 -1535 -1484 0
1536 1535 -1484 0
-1536 1535 1484 0
1536 -1535 1484 0
-630 -1200 1537 0
-630 -1535 1537 0
-1200 -1535 1537 0
630 1200 -1537 0
630 1535 -1537 0
1200 1535 -1537 0
-631 -1201 -1538 0
631 1201 -1538 0
-631 1201 1538 0
631 -1201 1538 0
-1538 -1537 -1485 0
1538 1537 -1485 0
-1538 1537 1485 0
1538 -1537 1485 0
-631 -1201 1539 0
-631 -1537 1539 0
-1201 -1537 1539 0
631 1201 -1539 0
631 1537 -1539 0
1201 1537 -1539 0
-632 -1202 -1540 0
632 1202 -1540 0
-632 1202 1540 0
632 -1202 1540 0
-1540 -1539 -1486 0
1540 1539 -1486 0
-1540 1539 1486 0
1540 -1539 1486 0
-632 -1202 1541 0
-632 -1539 1541 0
-1202 -1539 1541 0
632 1202 -1541 0
632 1539 -1541 0
1202 1539 -1541 0
-633 -1203 -1542 0
633 1203 -1542 0
-633 1203 1542 0
633 -1203 1542 0
-1542 -1541 -1487 0
1542 1541 -1487 0
-1542 1541 1487 0
1542 -1541 1487 0
-633 -1203 1543 0
-633 -1541 1543 0
-1203 -1541 1543 0
633 1203 -1543 0
633 1541 -1543 0
1203 1541 -1543 0
-634 -1204 -1544 0
634 1204 -1544 0
-634 1204 1544 0
634 -1204 1544 0
-1544 -1543 -1488 0
1544 1543 -1488 0
-1544 1543 1488 0
1544 -1543 1488 0
-634 -1204 1545 0
-634 -1543 1545 0
-1204 -1543 1545 0
634 1204 -1545 0
634 1543 -1545 0
1204 1543 -1545 0
-635 -1205 -1546 0
635 1205 -1546 0
-635 1205 1546 0
635 -1205 1546 0
-1546 -1545 -1489 0
1546 1545 -1489 0
-1546 1545 1489 0
1546 -1545 1489 0
-635 -1205 1547 0
-635 -1545 1547 0
-1205 -1545 1547 0
635 1205 -1547 0
635 1545 -1547 0
1205 1545 -1547 0
-636 -1206 -1548 0
636 1206 -1548 0
-636 1206 1548 0
636 -1206 1548 0
-1548 -1547 -1490 0
1548 1547 -1490 0
-1548 1547 1490 0
1548 -1547 1490 0
-636 -1206 1549 0
-636 -1547 1549 0
-1206 -1547 1549 0
636 1206 -1549 0
636 1547 -1549 0
1206 1547 -1549 0
-637 -1207 -1550 0
637 1207 -1550 0
-637 1207 1550 0
637 -1207 1550 0
-1550 -1549 -1491 0
1550 1549 -1491 0
-1550 1549 1491 0
1550 -1549 1491 0
-637 -1207 1551 0
-637 -1549 1551 0
-1207 -1549 1551 0
637 1207 -1551 0
637 1549 -1551 0
1207 1549 -1551 0
-638 -1208 -1552 0
638 1208 -1552 0
-638 1208 1552 0
638 -1208 1552 0
-1552 -1551 -1492 0
1552 1551 -1492 0
-1552 1551 1492 0
1552 -1551 1492 0
-638 -1208 1553 0
-638 -1551 1553 0
-1208 -1551 1553 0
638 1208 -1553 0
638 1551 -1553 0
1208 1551 -1553 0
-639 -1209 -1554 0
639 1209 -1554 0
-639 1209 1554 0
639 -1209 1554 0
-1554 -1553 -1493 0
1554 1553 -1493 0
-1554 1553 1493 0
1554 -1553 1493 0
-639 -1209 1555 0
-639 -1553 1555 0
-1209 -1553 1555 0
639 1209 -1555 0
639 1553 -1555 0
1209 1553 -1555 0
-640 -1210 -1556 0
640 1210 -1556 0
-640 1210 1556 0
640 -1210 1556 0
-1556 -1555 -1494 0
1556 1555 -1494 0
-1556 1555 1494 0
1556 -1555 1494 0
-1179 -1369 -1557 0
1179 1369 -1557 0
-1179 1369 1557 0
1179 -1369 1557 0
-1179 -1369 1589 0
1179 -1589 0
1369 -1589 0
-1180 -1370 -1590 0
1180 1370 -1590 0
-1180 1370 1590 0
1180 -1370 1590 0
-1590 -1589 -1558 0
1590 1589 -1558 0
-1590 1589 1558 0
1590 -1589 1558 0
-1180 -1370 1591 0
-1180 -1589 1591 0
-1370 -1589 1591 0
1180 1370 -1591 0
1180 1589 -1591 0
1370 1589 -1591 0
-1181 -1371 -1592 0
1181 1371 -1592 0
-1181 1371 1592 0
1181 -1371 1592 0
-1592 -1591 -1559 0
1592 1591 -1559 0
-1592 1591 1559 0
1592 -1591 1559 0
-1181 -1371 1593 0
-1181 -1591 1593 0
-1371 -1591 1593 0
1181 1371 -1593 0
1181 1591 -1593 0
1371 1591 -1593 0
-1182 -1372 -1594 0
1182 1372 -1594 0
-1182 1372 1594 0
1182 -1372 1594 0
-1594 -1593 -1560 0
1594 1593 -1560 0
-1594 1593 1560 0
1594 -1593 1560 0
-1182 -1372 1595 0
-1182 -1593 1595 0
-1372 -1593 1595 0
1182 1372 -1595 0
1182 1593 -1595 0
1372 1593 -1595 0
-1183 -1373 -1596 0
1183 1373 -1596 0
-1183 1373 1596 0
1183 -1373 1596 0
-1596 -1595 -1561 0
1596 1595 -1561 0
-1596 1595 1561 0
1596 -1595 1561 0
-1183 -1373 1597 0
-1183 -1595 1597 0
-1373 -1595 1597 0
1183 1373 -1597 0
1183 1595 -1597 0
1373 1595 -1597 0
-1184 -1374 -1598 0
1184 1374 -1598 0
-1184 1374 1598 0
1184 -1374 1598 0
-1598 -1597 -1562 0
1598 1597 -1562 0
-1598 1597 1562 0
1598 -1597 1562 0
-1184 -1374 1599 0
-1184 -1597 1599 0
-1374 -1597 1599 0
1184 1374 -1599 0
1184 1597 -1599 0
1374 1597 -1599 0
-1185 -1375 -1600 0
1185 1375 -1600 0
-1185 1375 1600 0
1185 -1375 1600 0
-1600 -1599 -1563 0
1600 1599 -1563 0
-1600 1599 1563 0
1600 -1599 1563 0
-1185 -1375 1601 0
-1185 -1599 1601 0
-1375 -1599 1601 0
1185 1375 -1601 0
1185 1599 -1601 0
1375 1599 -1601 0
-1186 -1376 -1602 0
1186 1376 -1602 0
-1186 1376 1602 0
1186 -1376 1602 0
-1602 -1601 -1564 0
1602 1601 -1564 0
-1602 1601 1564 0
1602 -1601 1564 0
-1186 -1376 1603 0
-1186 -1601 1603 0
-1376 -1601 1603 0
1186 1376 -1603 0
1186 1601 -1603 0
1376 1601 -1603 0
-1187 -1377 -1604 0
1187 1377 -1604 0
-1187 1377 1604 0
1187 -1377 1604 0
-1604 -1603 -1565 0
1604 1603 -1565 0
-1604 1603 1565 0
1604 -1603 1565 0
-1187 -1377 1605 0
-1187 -1603 1605 0
-1377 -1603 1605 0
1187 1377 -1605 0
1187 1603 -1605 0
1377 1603 -1605 0
-1188 -1378 -1606 0
1188 1378 -1606 0
-1188 1378 1606 0
1188 -1378 1606 0
-1606 -1605 -1566 0
1606 1605 -1566 0
-1606 1605 1566 0
1606 -1605 1566 0
-1188 -1378 1607 0
-1188 -1605 1607 0
-1378 -1605 1607 0
1188 1378 -1607 0
1188 1605 -1607 0
1378 1605 -1607 0
-1189 -1379 -1608 0
1189 1379 -1608 0
-1189 1379 1608 0
1189 -1379 1608 0
-1608 -1607 -1567 0
1608 1607 -1567 0
-1608 1607 1567 0
1608 -1607 1567 0
-1189 -1379 1609 0
-1189 -1607 1609 0
-1379 -1607 1609 0
1189 1379 -1609 0
1189 1607 -1609 0
1379 1607 -1609 0
-1190 -1380 -1610 0
1190 1380 -1610 0
-1190 1380 1610 0
1190 -1380 1610 0
-1610 -1609 -1568 0
1610 1609 -1568 0
-1610 1609 1568 0
1610 -1609 1568 0
-1190 -1380 1611 0
-1190 -1609 1611 0
-1380 -1609 1611 0
1190 1380 -1611 0
1190 1609 -1611 0
1380 1609 -1611 0
-1191 -1381 -1612 0
1191 1381 -1612 0
-1191 1381 1612 0
1191 -1381 1612 0
-1612 -1611 -1569 0
1612 1611 -1569 0
-1612 1611 1569 0
1612 -1611 1569 0
-1191 -1381 1613 0
-1191 -1611 1613 0
-1381 -1611 1613 0
1191 1381 -1613 0
1191 1611 -1613 0
1381 1611 -1613 0
-1192 -1382 -1614 0
1192 1382 -1614 0
-1192 1382 1614 0
1192 -1382 1614 0
-1614 -1613 -1570 0
1614 1613 -1570 0
-1614 1613 1570 0
1614 -1613 1570 0
-1192 -1382 1615 0
-1192 -1613 1615 0
-1382 -1613 1615 0
1192 1382 -1615 0
1192 1613 -1615 0
1382 1613 -1615 0
-1193 -1383 -1616 0
1193 1383 -1616 0
-1193 1383 1616 0
1193 -1383 1616 0
-1616 -1615 -1571 0
1616 1615 -1571 0
-1616 1615 1571 0
1616 -1615 1571 0
-1193 -1383 1617 0
-1193 -1615 1617 0
-1383 -1615 1617 0
1193 1383 -1617 0
1193 1615 -1617 0
1383 1615 -1617 0
-1194 -1384 -1618 0
1194 1384 -1618 0
-1194 1384 1618 0
1194 -1384 1618 0
-1618 -1617 -1572 0
1618 1617 -1572 0
-1618 1617 1572 0
1618 -1617 1572 0
-1194 -1384 1619 0
-1194 -1617 1619 0
-1384 -1617 1619 0
1194 1384 -1619 0
1194 1617 -1619 0
1384 1617 -1619 0
-1195 -1385 -1620 0
1195 1385 -1620 0
-1195 1385 1620 0
1195 -1385 1620 0
-1620 -1619 -1573 0
1620 1619 -1573 0
-1620 1619 1573 0
1620 -1619 1573 0
-1195 -1385 1621 0
-1195 -1619 1621 0
-1385 -1619 1621 0
1195 1385 -1621 0
1195 1619 -1621 0
1385 1619 -1621 0
-1196 -1386 -1622 0
1196 1386 -1622 0
-1196 1386 1622 0
1196 -1386 1622 0
-1622 -1621 -1574 0
1622 1621 -1574 0
-1622 1621 1574 0
1622 -1621 1574 0
-1196 -1386 1623 0
-1196 -1621 1623 0
-1386 -1621 1623 0
1196 1386 -1623 0
1196 1621 -1623 0
1386 1621 -1623 0
-1197 -1387 -1624 0
1197 1387 -1624 0
-1197 1387 1624 0
1197 -1387 1624 0
-1624 -1623 -1575 0
1624 1623 -1575 0
-1624 1623 1575 0
1624 -1623 1575 0
-1197 -1387 1625 0
-1197 -1623 1625 0
-1387 -1623 1625 0
1197 1387 -1625 0
1197 1623 -1625 0
1387 1623 -1625 0
-1198 -1388 -1626 0
1198 1388 -1626 0
-1198 1388 1626 0
1198 -1388 1626 0
-1626 -1625 -1576 0
1626 1625 -1576 0
-1626 1625 1576 0
1626 -1625 1576 0
-1198 -1388 1627 0
-1198 -1625 1627 0
-1388 -1625 1627 0
1198 1388 -1627 0
1198 1625 -1627 0
1388 1625 -1627 0
-1199 -1389 -1628 0
1199 1389 -1628 0
-1199 1389 1628 0
1199 -1389 1628 0
-1628 -1627 -1577 0
1628 1627 -1577 0
-1628 1627 1577 0
1628 -1627 1577 0
-1199 -1389 1629 0
-1199 -1627 1629 0
-1389 -1627 1629 0
1199 1389 -1629 0
1199 1627 -1629 0
1389 1627 -1629 0
-1200 -1390 -1630 0
1200 1390 -1630 0
-1200 1390 1630 0
1200 -1390 1630 0
-1630 -1629 -1578 0
1630 1629 -1578 0
-1630 1629 1578 0
1630 -1629 1578 0
-1200 -1390 1631 0
-1200 -1629 1631 0
-1390 -1629 1631 0
1200 1390 -1631 0
1200 1629 -1631 0
1390 1629 -1631 0
-1201 -1391 -1632 0
1201 1391 -1632 0
-1201 1391 1632 0
1201 -1391 1632 0
-1632 -1631 -1579 0
1632 1631 -1579 0
-1632 1631 1579 0
1632 -1631 1579 0
-1201 -1391 1633 0
-1201 -1631 1633 0
-1391 -1631 1633 0
1201 1391 -1633 0
1201 1631 -1633 0
1391 1631 -1633 0
-1202 -1392 -1634 0
1202 1392 -1634 0
-1202 1392 1634 0
1202 -1392 1634 0
-1634 -1633 -1580 0
1634 1633 -1580 0
-1634 1633 1580 0
1634 -1633 1580 0
-1202 -1392 1635 0
-1202 -1633 1635 0
-1392 -1633 1635 0
1202 1392 -1635 0
1202 1633 -1635 0
1392 1633 -1635 0
-1203 -1393 -1636 0
1203 1393 -1636 0
-1203 1393 1636 0
1203 -1393 1636 0
-1636 -1635 -1581 0
1636 1635 -1581 0
-1636 1635 1581 0
1636 -1635 1581 0
-1203 -1393 1637 0
-1203 -1635 1637 0
-1393 -1635 1637 0
1203 1393 -1637 0
1203 1635 -1637 0
1393 1635 -1637 0
-1204 -1394 -1638 0
1204 1394 -1638 0
-1204 1394 1638 0
1204 -1394 1638 0
-1638 -1637 -1582 0
1638 1637 -1582 0
-1638 1637 1582 0
1638 -1637 1582 0
-1204 -1394 1639 0
-1204 -1637 1639 0
-1394 -1637 1639 0
1204 1394 -1639 0
1204 1637 -1639 0
1394 1637 -1639 0
-1205 -1395 -1640 0
1205 1395 -1640 0
-1205 1395 1640 0
1205 -1395 1640 0
-1640 -1639 -1583 0
1640 1639 -1583 0
-1640 1639 1583 0
1640 -1639 1583 0
-1205 -1395 1641 0
-1205 -1639 1641 0
-1395 -1639 1641 0
1205 1395 -1641 0
1205 1639 -1641 0
1395 1639 -1641 0
-1206 -1396 -1642 0
1206 1396 -1642 0
-1206 1396 1642 0
1206 -1396 1642 0
-1642 -1641 -1584 0
1642 1641 -1584 0
-1642 1641 1584 0
1642 -1641 1584 0
-1206 -1396 1643 0
-1206 -1641 1643 0
-1396 -1641 1643 0
1206 1396 -1643 0
1206 1641 -1643 0
1396 1641 -1643 0
-1207 -1397 -1644 0
1207 1397 -1644 0
-1207 1397 1644 0
1207 -1397 1644 0
-1644 -1643 -1585 0
1644 1643 -1585 0
-1644 1643 1585 0
1644 -1643 1585 0
-1207 -1397 1645 0
-1207 -1643 1645 0
-1397 -1643 1645 0
1207 1397 -1645 0
1207 1643 -1645 0
1397 1643 -1645 0
-1208 -1398 -1646 0
1208 1398 -1646 0
-1208 1398 1646 0
1208 -1398 1646 0
-1646 -1645 -1586 0
1646 1645 -1586 0
-1646 1645 1586 0
1646 -1645 1586 0
-1208 -1398 1647 0
-1208 -1645 1647 0
-1398 -1645 1647 0
1208 1398 -1647 0
1208 1645 -1647 0
1398 1645 -1647 0
-1209 -1399 -1648 0
1209 1399 -1648 0
-1209 1399 1648 0
1209 -1399 1648 0
-1648 -1647 -1587 0
1648 1647 -1587 0
-1648 1647 1587 0
1648 -1647 1587 0
-1209 -1399 1649 0
-1209 -1647 1649 0
-1399 -1647 1649 0
1209 1399 -1649 0
1209 1647 -1649 0
1399 1647 -1649 0
-1210 -1400 -1650 0
1210 1400 -1650 0
-1210 1400 1650 0
1210 -1400 1650 0
-1650 -1649 -1588 0
1650 1649 -1588 0
-1650 1649 1588 0
1650 -1649 1588 0
-1469 -1474 -1683 0
1469 1474 -1683 0
-1469 1474 1683 0
1469 -1474 1683 0
-1683 -1488 -1651 0
1683 1488 -1651 0
-1683 1488 1651 0
1683 -1488 1651 0
-1470 -1475 -1684 0
1470 1475 -1684 0
-1470 1475 1684 0
1470 -1475 1684 0
-1684 -1489 -1652 0
1684 1489 -1652 0
-1684 1489 1652 0
1684 -1489 1652 0
-1471 -1476 -1685 0
1471 1476 -1685 0
-1471 1476 1685 0
1471 -1476 1685 0
-1685 -1490 -1653 0
1685 1490 -1653 0
-1685 1490 1653 0
1685 -1490 1653 0
-1472 -1477 -1686 0
1472 1477 -1686 0
-1472 1477 1686 0
1472 -1477 1686 0
-1686 -1491 -1654 0
1686 1491 -1654 0
-1686 1491 1654 0
1686 -1491 1654 0
-1473 -1478 -1687 0
1473 1478 -1687 0
-1473 1478 1687 0
1473 -1478 1687 0
-1687 -1492 -1655 0
1687 1492 -1655 0
-1687 1492 1655 0
1687 -1492 1655 0
-1474 -1479 -1688 0
1474 1479 -1688 0
-1474 1479 1688 0
1474 -1479 1688 0
-1688 -1493 -1656 0
1688 1493 -1656 0
-1688 1493 1656 0
1688 -1493 1656 0
-1475 -1480 -1689 0
1475 1480 -1689 0
-1475 1480 1689 0
1475 -1480 1689 0
-1689 -1494 -1657 0
1689 1494 -1657 0
-1689 1494 1657 0
1689 -1494 1657 0
-1476 -1481 -1690 0
1476 1481 -1690 0
-1476 1481 1690 0
1476 -1481 1690 0
-1690 -1463 -1658 0
1690 1463 -1658 0
-1690 1463 1658 0
1690 -1463 1658 0
-1477 -1482 -1691 0
1477 1482 -1691 0
-1477 1482 1691 0
1477 -1482 1691 0
-1691 -1464 -1659 0
1691 1464 -1659 0
-1691 1464 1659 0
1691 -1464 1659 0
-1478 -1483 -1692 0
1478 1483 -1692 0
-1478 1483 1692 0
1478 -1483 1692 0
-1692 -1465 -1660 0
1692 1465 -1660 0
-1692 1465 1660 0
1692 -1465 1660 0
-1479 -1484 -1693 0
1479 1484 -1693 0
-1479 1484 1693 0
1479 -1484 1693 0
-1693 -1466 -1661 0
1693 1466 -1661 0
-1693 1466 1661 0
1693 -1466 1661 0
-1480 -1485 -1694 0
1480 1485 -1694 0
-1480 1485 1694 0
1480 -1485 1694 0
-1694 -1467 -1662 0
1694 1467 -1662 0
-1694 1467 1662 0
1694 -1467 1662 0
-1481 -1486 -1695 0
1481 1486 -1695 0
-1481 1486 1695 0
1481 -1486 1695 0
-1695 -1468 -1663 0
1695 1468 -1663 0
-1695 1468 1663 0
1695 -1468 1663 0
-1482 -1487 -1696 0
1482 1487 -1696 0
-1482 1487 1696 0
1482 -1487 1696 0
-1696 -1469 -1664 0
1696 1469 -1664 0
-1696 1469 1664 0
1696 -1469 1664 0
-1483 -1488 -1697 0
1483 1488 -1697 0
-1483 1488 1697 0
1483 -1488 1697 0
-1697 -1470 -1665 0
1697 1470 -1665 0
-1697 1470 1665 0
1697 -1470 1665 0
-1484 -1489 -1698 0
1484 1489 -1698 0
-1484 1489 1698 0
1484 -1489 1698 0
-1698 -1471 -1666 0
1698 1471 -1666 0
-1698 1471 1666 0
1698 -1471 1666 0
-1485 -1490 -1699 0
1485 1490 -1699 0
-1485 1490 1699 0
1485 -1490 1699 0
-1699 -1472 -1667 0
1699 1472 -1667 0
-1699 1472 1667 0
1699 -1472 1667 0
-1486 -1491 -1700 0
1486 1491 -1700 0
-1486 1491 1700 0
1486 -1491 1700 0
-1700 -1473 -1668 0
1700 1473 -1668 0
-1700 1473 1668 0
1700 -1473 1668 0
-1487 -1492 -1701 0
1487 1492 -1701 0
-1487 1492 1701 0
1487 -1492 1701 0
-1701 -1474 -1669 0
1701 1474 -1669 0
-1701 1474 1669 0
1701 -1474 1669 0
-1488 -1493 -1702 0
1488 1493 -1702 0
-1488 1493 1702 0
1488 -1493 1702 0
-1702 -1475 -1670 0
1702 1475 -1670 0
-1702 1475 1670 0
1702 -1475 1670 0
-1489 -1494 -1703 0
1489 1494 -1703 0
-1489 1494 1703 0
1489 -1494 1703 0
-1703 -1476 -1671 0
1703 1476 -1671 0
-1703 1476 1671 0
1703 -1476 1671 0
-1490 -1463 -1704 0
1490 1463 -1704 0
-1490 1463 1704 0
1490 -1463 1704 0
-1704 -1477 -1672 0
1704 1477 -1672 0
-1704 1477 1672 0
1704 -1477 1672 0
-1491 -1464 -1705 0
1491 1464 -1705 0
-1491 1464 1705 0
1491 -1464 1705 0
-1705 -1478 -1673 0
1705 1478 -1673 0
-1705 1478 1673 0
1705 -1478 1673 0
-1492 -1465 -1706 0
1492 1465 -1706 0
-1492 1465 1706 0
1492 -1465 1706 0
-1706 -1479 -1674 0
1706 1479 -1674 0
-1706 1479 1674 0
1706 -1479 1674 0
-1493 -1466 -1707 0
1493 1466 -1707 0
-1493 1466 1707 0
1493 -1466 1707 0
-1707 -1480 -1675 0
1707 1480 -1675 0
-1707 1480 1675 0
1707 -1480 1675 0
-1494 -1467 -1708 0
1494 1467 -1708 0
-1494 1467 1708 0
1494 -1467 1708 0
-1708 -1481 -1676 0
1708 1481 -1676 0
-1708 1481 1676 0
1708 -1481 1676 0
-1463 -1468 -1709 0
1463 1468 -1709 0
-1463 1468 1709 0
1463 -1468 1709 0
-1709 -1482 -1677 0
1709 1482 -1677 0
-1709 1482 1677 0
1709 -1482 1677 0
-1464 -1469 -1710 0
1464 1469 -1710 0
-1464 1469 1710 0
1464 -1469 1710 0
-1710 -1483 -1678 0
1710 1483 -1678 0
-1710 1483 1678 0
1710 -1483 1678 0
-1465 -1470 -1711 0
1465 1470 -1711 0
-1465 1470 1711 0
1465 -1470 1711 0
-1711 -1484 -1679 0
1711 1484 -1679 0
-1711 1484 1679 0
1711 -1484 1679 0
-1466 -1471 -1712 0
1466 1471 -1712 0
-1466 1471 1712 0
1466 -1471 1712 0
-1712 -1485 -1680 0
1712 1485 -1680 0
-1712 1485 1680 0
1712 -1485 1680 0
-1467 -1472 -1713 0
1467 1472 -1713 0
-1467 1472 1713 0
1467 -1472 1713 0
-1713 -1486 -1681 0
1713 1486 -1681 0
-1713 1486 1681 0
1713 -1486 1681 0
-1468 -1473 -1714 0
1468 1473 -1714 0
-1468 1473 1714 0
1468 -1473 1714 0
-1714 -1487 -1682 0
1714 1487 -1682 0
-1714 1487 1682 0
1714 -1487 1682 0
-1463 -641 1715 0
-1463 641 -1715 0
1463 -673 1715 0
1463 673 -1715 0
-1464 -642 1716 0
-1464 642 -1716 0
1464 -674 1716 0
1464 674 -1716 0
-1465 -643 1717 0
-1465 643 -1717 0
1465 -675 1717 0
1465 675 -1717 0
-1466 -644 1718 0
-1466 644 -1718 0
1466 -676 1718 0
1466 676 -1718 0
-1467 -645 1719 0
-1467 645 -1719 0
1467 -677 1719 0
1467 677 -1719 0
-1468 -646 1720 0
-1468 646 -1720 0
1468 -678 1720 0
1468 678 -1720 0
-1469 -647 1721 0
-1469 647 -1721 0
1469 -679 1721 0
1469 679 -1721 0
-1470 -648 1722 0
-1470 648 -1722 0
1470 -680 1722 0
1470 680 -1722 0
-1471 -649 1723 0
-1471 649 -1723 0
1471 -681 1723 0
1471 681 -1723 0
-1472 -650 1724 0
-1472 650 -1724 0
1472 -682 1724 0
1472 682 -1724 0
-1473 -651 1725 0
-1473 651 -1725 0
1473 -683 1725 0
1473 683 -1725 0
-1474 -652 1726 0
-1474 652 -1726 0
1474 -684 1726 0
1474 684 -1726 0
-1475 -653 1727 0
-1475 653 -1727 0
1475 -685 1727 0
1475 685 -1727 0
-1476 -654 1728 0
-1476 654 -1728 0
1476 -686 1728 0
1476 686 -1728 0
-1477 -655 1729 0
-1477 655 -1729 0
1477 -687 1729 0
1477 687 -1729 0
-1478 -656 1730 0
-1478 656 -1730 0
1478 -688 1730 0
1478 688 -1730 0
-1479 -657 1731 0
-1479 657 -1731 0
1479 -689 1731 0
1479 689 -1731 0
-1480 -658 1732 0
-1480 658 -1732 0
1480 -690 1732 0
1480 690 -1732 0
-1481 -659 1733 0
-1481 659 -1733 0
1481 -691 1733 0
1481 691 -1733 0
-1482 -660 1734 0
-1482 660 -1734 0
1482 -692 1734 0
1482 692 -1734 0
-1483 -661 1735 0
-1483 661 -1735 0
1483 -693 1735 0
1483 693 -1735 0
-1484 -662 1736 0
-1484 662 -1736 0
1484 -694 1736 0
1484 694 -1736 0
-1485 -663 1737 0
-1485 663 -1737 0
1485 -695 1737 0
1485 695 -1737 0
-1486 -664 1738 0
-1486 664 -1738 0
1486 -696 1738 0
1486 696 -1738 0
-1487 -665 1739 0
-1487 665 -1739 0
1487 -697 1739 0
1487 697 -1739 0
-1488 -666 1740 0
-1488 666 -1740 0
1488 -698 1740 0
1488 698 -1740 0
-1489 -667 1741 0
-1489 667 -1741 0
1489 -699 1741 0
1489 699 -1741 0
-1490 -668 1742 0
-1490 668 -1742 0
1490 -700 1742 0
1490 700 -1742 0
-1491 -669 1743 0
-1491 669 -1743 0
1491 -701 1743 0
1491 701 -1743 0
-1492 -670 1744 0
-1492 670 -1744 0
1492 -702 1744 0
1492 702 -1744 0
-1493 -671 1745 0
-1493 671 -1745 0
1493 -703 1745 0
1493 703 -1745 0
-1494 -672 1746 0
-1494 672 -1746 0
1494 -704 1746 0
1494 704 -1746 0
-705 -1651 -1747 0
705 1651 -1747 0
-705 1651 1747 0
705 -1651 1747 0
-705 -1651 1779 0
705 -1779 0
1651 -1779 0
-706 -1652 -1780 0
706 1652 -1780 0
-706 1652 1780 0
706 -1652 1780 0
-1780 -1779 -1748 0
1780 1779 -1748 0
-1780 1779 1748 0
1780 -1779 1748 0
-706 -1652 1781 0
-706 -1779 1781 0
-1652 -1779 1781 0
706 1652 -1781 0
706 1779 -1781 0
1652 1779 -1781 0
-707 -1653 -1782 0
707 1653 -1782 0
-707 1653 1782 0
707 -1653 1782 0
-1782 -1781 -1749 0
1782 1781 -1749 0
-1782 1781 1749 0
1782 -1781 1749 0
-707 -1653 1783 0
-707 -1781 1783 0
-1653 -1781 1783 0
707 1653 -1783 0
707 1781 -1783 0
1653 1781 -1783 0
-708 -1654 -1784 0
708 1654 -1784 0
-708 1654 1784 0
708 -1654 1784 0
-1784 -1783 -1750 0
1784 1783 -1750 0
-1784 1783 1750 0
1784 -1783 1750 0
-708 -1654 1785 0
-708 -1783 1785 0
-1654 -1783 1785 0
708 1654 -1785 0
708 1783 -1785 0
1654 1783 -1785 0
-709 -1655 -1786 0
709 1655 -1786 0
-709 1655 1786 0
709 -1655 1786 0
-1786 -1785 -1751 0
1786 1785 -1751 0
-1786 1785 1751 0
1786 -1785 1751 0
-709 -1655 1787 0
-709 -1785 1787 0
-1655 -1785 1787 0
709 1655 -1787 0
709 1785 -1787 0
1655 1785 -1787 0
-710 -1656 -1788 0
710 1656 -1788 0
-710 1656 1788 0
710 -1656 1788 0
-1788 -1787 -1752 0
1788 1787 -1752 0
-1788 1787 1752 0
1788 -1787 1752 0
-710 -1656 1789 0
-710 -1787 1789 0
-1656 -1787 1789 0
710 1656 -1789 0
710 1787 -1789 0
1656 1787 -1789 0
-711 -1657 -1790 0
711 1657 -1790 0
-711 1657 1790 0
711 -1657 1790 0
-1790 -1789 -1753 0
1790 1789 -1753 0
-1790 1789 1753 0
1790 -1789 1753 0
-711 -1657 1791 0
-711 -1789 1791 0
-1657 -1789 1791 0
711 1657 -1791 0
711 1789 -1791 0
1657 1789 -1791 0
-712 -1658 -1792 0
712 1658 -1792 0
-712 1658 1792 0
712 -1658 1792 0
-1792 -1791 -1754 0
1792 1791 -1754 0
-1792 1791 1754 0
1792 -1791 1754 0
-712 -1658 1793 0
-712 -1791 1793 0
-1658 -1791 1793 0
712 1658 -1793 0
712 1791 -1793 0
1658 1791 -1793 0
-713 -1659 -1794 0
713 1659 -1794 0
-713 1659 1794 0
713 -1659 1794 0
-1794 -1793 -1755 0
1794 1793 -1755 0
-1794 1793 1755 0
1794 -1793 1755 0
-713 -1659 1795 0
-713 -1793 1795 0
-1659 -1793 1795 0
713 1659 -1795 0
713 1793 -1795 0
1659 1793 -1795 0
-714 -1660 -1796 0
714 1660 -1796 0
-714 1660 1796 0
714 -1660 1796 0
-1796 -1795 -1756 0
1796 1795 -1756 0
-1796 1795 1756 0
1796 -1795 1756 0
-714 -1660 1797 0
-714 -1795 1797 0
-1660 -1795 1797 0
714 1660 -1797 0
714 1795 -1797 0
1660 1795 -1797 0
-715 -1661 -1798 0
715 1661 -1798 0
-715 1661 1798 0
715 -1661 1798 0
-1798 -1797 -1757 0
1798 1797 -1757 0
-1798 1797 1757 0
1798 -1797 1757 0
-715 -1661 1799 0
-715 -1797 1799 0
-1661 -1797 1799 0
715 1661 -1799 0
715 1797 -1799 0
1661 1797 -1799 0
-716 -1662 -1800 0
716 1662 -1800 0
-716 1662 1800 0
716 -1662 1800 0
-1800 -1799 -1758 0
1800 1799 -1758 0
-1800 1799 1758 0
1800 -1799 1758 0
-716 -1662 1801 0
-716 -1799 1801 0
-1662 -1799 1801 0
716 1662 -1801 0
716 1799 -1801 0
1662 1799 -1801 0
-717 -1663 -1802 0
717 1663 -1802 0
-717 1663 1802 0
717 -1663 1802 0
-1802 -1801 -1759 0
1802 1801 -1759 0
-1802 1801 1759 0
1802 -1801 1759 0
-717 -1663 1803 0
-717 -1801 1803 0
-1663 -1801 1803 0
717 1663 -1803 0
717 1801 -1803 0
1663 1801 -1803 0
-718 -1664 -1804 0
718 1664 -1804 0
-718 1664 1804 0
718 -1664 1804 0
-1804 -1803 -1760 0
1804 1803 -1760 0
-1804 1803 1760 0
1804 -1803 1760 0
-718 -1664 1805 0
-718 -1803 1805 0
-1664 -1803 1805 0
718 1664 -1805 0
718 1803 -1805 0
1664 1803 -1805 0
-719 -1665 -1806 0
719 1665 -1806 0
-719 1665 1806 0
719 -1665 1806 0
-1806 -1805 -1761 0
1806 1805 -1761 0
-1806 1805 1761 0
1806 -1805 1761 0
-719 -1665 1807 0
-719 -1805 1807 0
-1665 -1805 1807 0
719 1665 -1807 0
719 1805 -1807 0
1665 1805 -1807 0
-720 -1666 -1808 0
720 1666 -1808 0
-720 1666 1808 0
720 -1666 1808 0
-1808 -1807 -1762 0
1808 1807 -1762 0
-1808 1807 1762 0
1808 -1807 1762 0
-720 -1666 1809 0
-720 -1807 1809 0
-1666 -1807 1809 0
720 1666 -1809 0
720 1807 -1809 0
1666 1807 -1809 0
-721 -1667 -1810 0
721 1667 -1810 0
-721 1667 1810 0
721 -1667 1810 0
-1810 -1809 -1763 0
1810 1809 -1763 0
-1810 1809 1763 0
1810 -1809 1763 0
-721 -1667 1811 0
-721 -1809 1811 0
-1667 -1809 1811 0
721 1667 -1811 0
721 1809 -1811 0
1667 1809 -1811 0
-722 -1668 -1812 0
722 1668 -1812 0
-722 1668 1812 0
722 -1668 1812 0
-1812 -1811 -1764 0
1812 1811 -1764 0
-1812 1811 1764 0
1812 -1811 1764 0
-722 -1668 1813 0
-722 -1811 1813 0
-1668 -1811 1813 0
722 1668 -1813 0
722 1811 -1813 0
1668 1811 -1813 0
-723 -1669 -1814 0
723 1669 -1814 0
-723 1669 1814 0
723 -1669 1814 0
-1814 -1813 -1765 0
1814 1813 -1765 0
-1814 1813 1765 0
1814 -1813 1765 0
-723 -1669 1815 0
-723 -1813 1815 0
-1669 -1813 1815 0
723 1669 -1815 0
723 1813 -1815 0
1669 1813 -1815 0
-724 -1670 -1816 0
724 1670 -1816 0
-724 1670 1816 0
724 -1670 1816 0
-1816 -1815 -1766 0
1816 1815 -1766 0
-1816 1815 1766 0
1816 -1815 1766 0
-724 -1670 1817 0
-724 -1815 1817 0
-1670 -1815 1817 0
724 1670 -1817 0
724 1815 -1817 0
1670 1815 -1817 0
-725 -1671 -1818 0
725 1671 -1818 0
-725 1671 1818 0
725 -1671 1818 0
-1818 -1817 -1767 0
1818 1817 -1767 0
-1818 1817 1767 0
1818 -1817 1767 0
-725 -1671 1819 0
-725 -1817 1819 0
-1671 -1817 1819 0
725 1671 -1819 0
725 1817 -1819 0
1671 1817 -1819 0
-726 -1672 -1820 0
726 1672 -1820 0
-726 1672 1820 0
726 -1672 1820 0
-1820 -1819 -1768 0
1820 1819 -1768 0
-1820 1819 1768 0
1820 -1819 1768 0
-726 -1672 1821 0
-726 -1819 1821 0
-1672 -1819 1821 0
726 1672 -1821 0
726 1819 -1821 0
1672 1819 -1821 0
-727 -1673 -1822 0
727 1673 -1822 0
-727 1673 1822 0
727 -1673 1822 0
-1822 -1821 -1769 0
1822 1821 -1769 0
-1822 1821 1769 0
1822 -1821 1769 0
-727 -1673 1823 0
-727 -1821 1823 0
-1673 -1821 1823 0
727 1673 -1823 0
727 1821 -1823 0
1673 1821 -1823 0
-728 -1674 -1824 0
728 1674 -1824 0
-728 1674 1824 0
728 -1674 1824 0
-1824 -1823 -1770 0
1824 1823 -1770 0
-1824 1823 1770 0
1824 -1823 1770 0
-728 -1674 1825 0
-728 -1823 1825 0
-1674 -1823 1825 0
728 1674 -1825 0
728 1823 -1825 0
1674 1823 -1825 0
-729 -1675 -1826 0
729 1675 -1826 0
-729 1675 1826 0
729 -1675 1826 0
-1826 -1825 -1771 0
1826 1825 -1771 0
-1826 1825 1771 0
1826 -1825 1771 0
-729 -1675 1827 0
-729 -1825 1827 0
-1675 -1825 1827 0
729 1675 -1827 0
729 1825 -1827 0
1675 1825 -1827 0
-730 -1676 -1828 0
730 1676 -1828 0
-730 1676 1828 0
730 -1676 1828 0
-1828 -1827 -1772 0
1828 1827 -1772 0
-1828 1827 1772 0
1828 -1827 1772 0
-730 -1676 1829 0
-730 -1827 1829 0
-1676 -1827 1829 0
730 1676 -1829 0
730 1827 -1829 0
1676 1827 -1829 0
-731 -1677 -1830 0
731 1677 -1830 0
-731 1677 1830 0
731 -1677 1830 0
-1830 -1829 -1773 0
1830 1829 -1773 0
-1830 1829 1773 0
1830 -1829 1773 0
-731 -1677 1831 0
-731 -1829 1831 0
-1677 -1829 1831 0
731 1677 -1831 0
731 1829 -1831 0
1677 1829 -1831 0
-732 -1678 -1832 0
732 1678 -1832 0
-732 1678 1832 0
732 -1678 1832 0
-1832 -1831 -1774 0
1832 1831 -1774 0
-1832 1831 1774 0
1832 -1831 1774 0
-732 -1678 1833 0
-732 -1831 1833 0
-1678 -1831 1833 0
732 1678 -1833 0
732 1831 -1833 0
1678 1831 -1833 0
-733 -1679 -1834 0
733 1679 -1834 0
-733 1679 1834 0
733 -1679 1834 0
-1834 -1833 -1775 0
1834 1833 -1775 0
-1834 1833 1775 0
1834 -1833 1775 0
-733 -1679 1835 0
-733 -1833 1835 0
-1679 -1833 1835 0
733 1679 -1835 0
733 1833 -1835 0
1679 1833 -1835 0
-734 -1680 -1836 0
734 1680 -1836 0
-734 1680 1836 0
734 -1680 1836 0
-1836 -1835 -1776 0
1836 1835 -1776 0
-1836 1835 1776 0
1836 -1835 1776 0
-734 -1680 1837 0
-734 -1835 1837 0
-1680 -1835 1837 0
734 1680 -1837 0
734 1835 -1837 0
1680 1835 -1837 0
-735 -1681 -1838 0
735 1681 -1838 0
-735 1681 1838 0
735 -1681 1838 0
-1838 -1837 -1777 0
1838 1837 -1777 0
-1838 1837 1777 0
1838 -1837 1777 0
-735 -1681 1839 0
-735 -1837 1839 0
-1681 -1837 1839 0
735 1681 -1839 0
735 1837 -1839 0
1681 1837 -1839 0
-736 -1682 -1840 0
736 1682 -1840 0
-736 1682 1840 0
736 -1682 1840 0
-1840 -1839 -1778 0
1840 1839 -1778 0
-1840 1839 1778 0
1840 -1839 1778 0
-1715 -33 -1841 0
1715 33 -1841 0
-1715 33 1841 0
1715 -33 1841 0
-1715 -33 1873 0
1715 -1873 0
33 -1873 0
-1716 -34 -1874 0
1716 34 -1874 0
-1716 34 1874 0
1716 -34 1874 0
-1874 -1873 -1842 0
1874 1873 -1842 0
-1874 1873 1842 0
1874 -1873 1842 0
-1716 -34 1875 0
-1716 -1873 1875 0
-34 -1873 1875 0
1716 34 -1875 0
1716 1873 -1875 0
34 1873 -1875 0
-1717 -35 -1876 0
1717 35 -1876 0
-1717 35 1876 0
1717 -35 1876 0
-1876 -1875 -1843 0
1876 1875 -1843 0
-1876 1875 1843 0
1876 -1875 1843 0
-1717 -35 1877 0
-1717 -1875 1877 0
-35 -1875 1877 0
1717 35 -1877 0
1717 1875 -1877 0
35 1875 -1877 0
-1718 -36 -1878 0
1718 36 -1878 0
-1718 36 1878 0
1718 -36 1878 0
-1878 -1877 -1844 0
1878 1877 -1844 0
-1878 1877 1844 0
1878 -1877 1844 0
-1718 -36 1879 0
-1718 -1877 1879 0
-36 -1877 1879 0
1718 36 -1879 0
1718 1877 -1879 0
36 1877 -1879 0
-1719 -37 -1880 0
1719 37 -1880 0
-1719 37 1880 0
1719 -37 1880 0
-1880 -1879 -1845 0
1880 1879 -1845 0
-1880 1879 1845 0
1880 -1879 1845 0
-1719 -37 1881 0
-1719 -1879 1881 0
-37 -1879 1881 0
1719 37 -1881 0
1719 1879 -1881 0
37 1879 -1881 0
-1720 -38 -1882 0
1720 38 -1882 0
-1720 38 1882 0
1720 -38 1882 0
-1882 -1881 -1846 0
1882 1881 -1846 0
-1882 1881 1846 0
1882 -1881 1846 0
-1720 -38 1883 0
-1720 -1881 1883 0
-38 -1881 1883 0
1720 38 -1883 0
1720 1881 -1883 0
38 1881 -1883 0
-1721 -39 -1884 0
1721 39 -1884 0
-1721 39 1884 0
1721 -39 1884 0
-1884 -1883 -1847 0
1884 1883 -1847 0
-1884 1883 1847 0
1884 -1883 1847 0
-1721 -39 1885 0
-1721 -1883 1885 0
-39 -1883 1885 0
1721 39 -1885 0
1721 1883 -1885 0
39 1883 -1885 0
-1722 -40 -1886 0
1722 40 -1886 0
-1722 40 1886 0
1722 -40 1886 0
-1886 -1885 -1848 0
1886 1885 -1848 0
-1886 1885 1848 0
1886 -1885 1848 0
-1722 -40 1887 0
-1722 -1885 1887 0
-40 -1885 1887 0
1722 40 -1887 0
1722 1885 -1887 0
40 1885 -1887 0
-1723 -41 -1888 0
1723 41 -1888 0
-1723 41 1888 0
1723 -41 1888 0
-1888 -1887 -1849 0
1888 1887 -1849 0
-1888 1887 1849 0
1888 -1887 1849 0
-1723 -41 1889 0
-1723 -1887 1889 0
-41 -1887 1889 0
1723 41 -1889 0
1723 1887 -1889 0
41 1887 -1889 0
-1724 -42 -1890 0
1724 42 -1890 0
-1724 42 1890 0
1724 -42 1890 0
-1890 -1889 -1850 0
1890 1889 -1850 0
-1890 1889 1850 0
1890 -1889 1850 0
-1724 -42 1891 0
-1724 -1889 1891 0
-42 -1889 1891 0
1724 42 -1891 0
1724 1889 -1891 0
42 1889 -1891 0
-1725 -43 -1892 0
1725 43 -1892 0
-1725 43 1892 0
1725 -43 1892 0
-1892 -1891 -1851 0
1892 1891 -1851 0
-1892 1891 1851 0
1892 -1891 1851 0
-1725 -43 1893 0
-1725 -1891 1893 0
-43 -1891 1893 0
1725 43 -1893 0
1725 1891 -1893 0
43 1891 -1893 0
-1726 -44 -1894 0
1726 44 -1894 0
-1726 44 1894 0
1726 -44 1894 0
-1894 -1893 -1852 0
1894 1893 -1852 0
-1894 1893 1852 0
1894 -1893 1852 0
-1726 -44 1895 0
-1726 -1893 1895 0
-44 -1893 1895 0
1726 44 -1895 0
1726 1893 -1895 0
44 1893 -1895 0
-1727 -45 -1896 0
1727 45 -1896 0
-1727 45 1896 0
1727 -45 1896 0
-1896 -1895 -1853 0
1896 1895 -1853 0
-1896 1895 1853 0
1896 -1895 1853 0
-1727 -45 1897 0
-1727 -1895 1897 0
-45 -1895 1897 0
1727 45 -1897 0
1727 1895 -1897 0
45 1895 -1897 0
-1728 -46 -1898 0
1728 46 -1898 0
-1728 46 1898 0
1728 -46 1898 0
-1898 -1897 -1854 0
1898 1897 -1854 0
-1898 1897 1854 0
1898 -1897 1854 0
-1728 -46 1899 0
-1728 -1897 1899 0
-46 -1897 1899 0
1728 46 -1899 0
1728 1897 -1899 0
46 1897 -1899 0
-1729 -47 -1900 0
1729 47 -1900 0
-1729 47 1900 0
1729 -47 1900 0
-1900 -1899 -1855 0
1900 1899 -1855 0
-1900 1899 1855 0
1900 -1899 1855 0
-1729 -47 1901 0
-1729 -1899 1901 0
-47 -1899 1901 0
1729 47 -1901 0
1729 1899 -1901 0
47 1899 -1901 0
-1730 -48 -1902 0
1730 48 -1902 0
-1730 48 1902 0
1730 -48 1902 0
-1902 -1901 -1856 0
1902 1901 -1856 0
-1902 1901 1856 0
1902 -1901 1856 0
-1730 -48 1903 0
-1730 -1901 1903 0
-48 -1901 1903 0
1730 48 -1903 0
1730 1901 -1903 0
48 1901 -1903 0
-1731 -49 -1904 0
1731 49 -1904 0
-1731 49 1904 0
1731 -49 1904 0
-1904 -1903 -1857 0
1904 1903 -1857 0
-1904 1903 1857 0
1904 -1903 1857 0
-1731 -49 1905 0
-1731 -1903 1905 0
-49 -1903 1905 0
1731 49 -1905 0
1731 1903 -1905 0
49 1903 -1905 0
-1732 -50 -1906 0
1732 50 -1906 0
-1732 50 1906 0
1732 -50 1906 0
-1906 -1905 -1858 0
1906 1905 -1858 0
-1906 1905 1858 0
1906 -1905 1858 0
-1732 -50 1907 0
-1732 -1905 1907 0
-50 -1905 1907 0
1732 50 -1907 0
1732 1905 -1907 0
50 1905 -1907 0
-1733 -51 -1908 0
1733 51 -1908 0
-1733 51 1908 0
1733 -51 1908 0
-1908 -1907 -1859 0
1908 1907 -1859 0
-1908 1907 1859 0
1908 -1907 1859 0
-1733 -51 1909 0
-1733 -1907 1909 0
-51 -1907 1909 0
1733 51 -1909 0
1733 1907 -1909 0
51 1907 -1909 0
-1734 -52 -1910 0
1734 52 -1910 0
-1734 52 1910 0
1734 -52 1910 0
-1910 -1909 -1860 0
1910 1909 -1860 0
-1910 1909 1860 0
1910 -1909 1860 0
-1734 -52 1911 0
-1734 -1909 1911 0
-52 -1909 1911 0
1734 52 -1911 0
1734 1909 -1911 0
52 1909 -1911 0
-1735 -53 -1912 0
1735 53 -1912 0
-1735 53 1912 0
1735 -53 1912 0
-1912 -1911 -1861 0
1912 1911 -1861 0
-1912 1911 1861 0
1912 -1911 1861 0
-1735 -53 1913 0
-1735 -1911 1913 0
-53 -1911 1913 0
1735 53 -1913 0
1735 1911 -1913 0
53 1911 -1913 0
-1736 -54 -1914 0
1736 54 -1914 0
-1736 54 1914 0
1736 -54 1914 0
-1914 -1913 -1862 0
1914 1913 -1862 0
-1914 1913 1862 0
1914 -1913 1862 0
-1736 -54 1915 0
-1736 -1913 1915 0
-54 -1913 1915 0
1736 54 -1915 0
1736 1913 -1915 0
54 1913 -1915 0
-1737 -55 -1916 0
1737 55 -1916 0
-1737 55 1916 0
1737 -55 1916 0
-1916 -1915 -1863 0
1916 1915 -1863 0
-1916 1915 1863 0
1916 -1915 1863 0
-1737 -55 1917 0
-1737 -1915 1917 0
-55 -1915 1917 0
1737 55 -1917 0
1737 1915 -1917 0
55 1915 -1917 0
-1738 -56 -1918 0
1738 56 -1918 0
-1738 56 1918 0
1738 -56 1918 0
-1918 -1917 -1864 0
1918 1917 -1864 0
-1918 1917 1864 0
1918 -1917 1864 0
-1738 -56 1919 0
-1738 -1917 1919 0
-56 -1917 1919 0
1738 56 -1919 0
1738 1917 -1919 0
56 1917 -1919 0
-1739 -57 -1920 0
1739 57 -1920 0
-1739 57 1920 0
1739 -57 1920 0
-1920 -1919 -1865 0
1920 1919 -1865 0
-1920 1919 1865 0
1920 -1919 1865 0
-1739 -57 1921 0
-1739 -1919 1921 0
-57 -1919 1921 0
1739 57 -1921 0
1739 1919 -1921 0
57 1919 -1921 0
-1740 -58 -1922 0
1740 58 -1922 0
-1740 58 1922 0
1740 -58 1922 0
-1922 -1921 -1866 0
1922 1921 -1866 0
-1922 1921 1866 0
1922 -1921 1866 0
-1740 -58 1923 0
-1740 -1921 1923 0
-58 -1921 1923 0
1740 58 -1923 0
1740 1921 -1923 0
58 1921 -1923 0
-1741 -59 -1924 0
1741 59 -1924 0
-1741 59 1924 0
1741 -59 1924 0
-1924 -1923 -1867 0
1924 1923 -1867 0
-1924 1923 1867 0
1924 -1923 1867 0
-1741 -59 1925 0
-1741 -1923 1925 0
-59 -1923 1925 0
1741 59 -1925 0
1741 1923 -1925 0
59 1923 -1925 0
-1742 -60 -1926 0
1742 60 -1926 0
-1742 60 1926 0
1742 -60 1926 0
-1926 -1925 -1868 0
1926 1925 -1868 0
-1926 1925 1868 0
1926 -1925 1868 0
-1742 -60 1927 0
-1742 -1925 1927 0
-60 -1925 1927 0
1742 60 -1927 0
1742 1925 -1927 0
60 1925 -1927 0
-1743 -61 -1928 0
1743 61 -1928 0
-1743 61 1928 0
1743 -61 1928 0
-1928 -1927 -1869 0
1928 1927 -1869 0
-1928 1927 1869 0
1928 -1927 1869 0
-1743 -61 1929 0
-1743 -1927 1929 0
-61 -1927 1929 0
1743 61 -1929 0
1743 1927 -1929 0
61 1927 -1929 0
-1744 -62 -1930 0
1744 62 -1930 0
-1744 62 1930 0
1744 -62 1930 0
-1930 -1929 -1870 0
1930 1929 -1870 0
-1930 1929 1870 0
1930 -1929 1870 0
-1744 -62 1931 0
-1744 -1929 1931 0
-62 -1929 1931 0
1744 62 -1931 0
1744 1929 -1931 0
62 1929 -1931 0
-1745 -63 -1932 0
1745 63 -1932 0
-1745 63 1932 0
1745 -63 1932 0
-1932 -1931 -1871 0
1932 1931 -1871 0
-1932 1931 1871 0
1932 -1931 1871 0
-1745 -63 1933 0
-1745 -1931 1933 0
-63 -1931 1933 0
1745 63 -1933 0
1745 1931 -1933 0
63 1931 -1933 0
-1746 -64 -1934 0
1746 64 -1934 0
-1746 64 1934 0
1746 -64 1934 0
-1934 -1933 -1872 0
1934 1933 -1872 0
-1934 1933 1872 0
1934 -1933 1872 0
1935 0
-1936 0
-1937 0
-1938 0
1939 0
-1940 0
-1941 0
1942 0
-1943 0
-1944 0
1945 0
-1946 0
-1947 0
-1948 0
1949 0
-1950 0
1951 0
1952 0
1953 0
-1954 0
1955 0
1956 0
-1957 0
-1958 0
1959 0
-1960 0
-1961 0
-1962 0
1963 0
1964 0
1965 0
-1966 0
-1747 -1935 -1967 0
1747 1935 -1967 0
-1747 1935 1967 0
1747 -1935 1967 0
-1747 -1935 1999 0
1747 -1999 0
1935 -1999 0
-1748 -1936 -2000 0
1748 1936 -2000 0
-1748 1936 2000 0
1748 -1936 2000 0
-2000 -1999 -1968 0
2000 1999 -1968 0
-2000 1999 1968 0
2000 -1999 1968 0
-1748 -1936 2001 0
-1748 -1999 2001 0
-1936 -1999 2001 0
1748 1936 -2001 0
1748 1999 -2001 0
1936 1999 -2001 0
-1749 -1937 -2002 0
1749 1937 -2002 0
-1749 1937 2002 0
1749 -1937 2002 0
-2002 -2001 -1969 0
2002 2001 -1969 0
-2002 2001 1969 0
2002 -2001 1969 0
-1749 -1937 2003 0
-1749 -2001 2003 0
-1937 -2001 2003 0
1749 1937 -2003 0
1749 2001 -2003 0
1937 2001 -2003 0
-1750 -1938 -2004 0
1750 1938 -2004 0
-1750 1938 2004 0
1750 -1938 2004 0
-2004 -2003 -1970 0
2004 2003 -1970 0
-2004 2003 1970 0
2004 -2003 1970 0
-1750 -1938 2005 0
-1750 -2003 2005 0
-1938 -2003 2005 0
1750 1938 -2005 0
1750 2003 -2005 0
1938 2003 -2005 0
-1751 -1939 -2006 0
1751 1939 -2006 0
-1751 1939 2006 0
1751 -1939 2006 0
-2006 -2005 -1971 0
2006 2005 -1971 0
-2006 2005 1971 0
2006 -2005 1971 0
-1751 -1939 2007 0
-1751 -2005 2007 0
-1939 -2005 2007 0
1751 1939 -2007 0
1751 2005 -2007 0
1939 2005 -2007 0
-1752 -1940 -2008 0
1752 1940 -2008 0
-1752 1940 2008 0
1752 -1940 2008 0
-2008 -2007 -1972 0
2008 2007 -1972 0
-2008 2007 1972 0
2008 -2007 1972 0
-1752 -1940 2009 0
-1752 -2007 2009 0
-1940 -2007 2009 0
1752 1940 -2009 0
1752 2007 -2009 0
1940 2007 -2009 0
-1753 -1941 -2010 0
1753 1941 -2010 0
-1753 1941 2010 0
1753 -1941 2010 0
-2010 -2009 -1973 0
2010 2009 -1973 0
-2010 2009 1973 0
2010 -2009 1973 0
-1753 -1941 2011 0
-1753 -2009 2011 0
-1941 -2009 2011 0
1753 1941 -2011 0
1753 2009 -2011 0
1941 2009 -2011 0
-1754 -1942 -2012 0
1754 1942 -2012 0
-1754 1942 2012 0
1754 -1942 2012 0
-2012 -2011 -1974 0
2012 2011 -1974 0
-2012 2011 1974 0
2012 -2011 1974 0
-1754 -1942 2013 0
-1754 -2011 2013 0
-1942 -2011 2013 0
1754 1942 -2013 0
1754 2011 -2013 0
1942 2011 -2013 0
-1755 -1943 -2014 0
1755 1943 -2014 0
-1755 1943 2014 0
1755 -1943 2014 0
-2014 -2013 -1975 0
2014 2013 -1975 0
-2014 2013 1975 0
2014 -2013 1975 0
-1755 -1943 2015 0
-1755 -2013 2015 0
-1943 -2013 2015 0
1755 1943 -2015 0
1755 2013 -2015 0
1943 2013 -2015 0
-1756 -1944 -2016 0
1756 1944 -2016 0
-1756 1944 2016 0
1756 -1944 2016 0
-2016 -2015 -1976 0
2016 2015 -1976 0
-2016 2015 1976 0
2016 -2015 1976 0
-1756 -1944 2017 0
-1756 -2015 2017 0
-1944 -2015 2017 0
1756 1944 -2017 0
1756 2015 -2017 0
1944 2015 -2017 0
-1757 -1945 -2018 0
1757 1945 -2018 0
-1757 1945 2018 0
1757 -1945 2018 0
-2018 -2017 -1977 0
2018 2017 -1977 0
-2018 2017 1977 0
2018 -2017 1977 0
-1757 -1945 2019 0
-1757 -2017 2019 0
-1945 -2017 2019 0
1757 1945 -2019 0
1757 2017 -2019 0
1945 2017 -2019 0
-1758 -1946 -2020 0
1758 1946 -2020 0
-1758 1946 2020 0
1758 -1946 2020 0
-2020 -2019 -1978 0
2020 2019 -1978 0
-2020 2019 1978 0
2020 -2019 1978 0
-1758 -1946 2021 0
-1758 -2019 2021 0
-1946 -2019 2021 0
1758 1946 -2021 0
1758 2019 -2021 0
1946 2019 -2021 0
-1759 -1947 -2022 0
1759 1947 -2022 0
-1759 1947 2022 0
1759 -1947 2022 0
-2022 -2021 -1979 0
2022 2021 -1979 0
-2022 2021 1979 0
2022 -2021 1979 0
-1759 -1947 2023 0
-1759 -2021 2023 0
-1947 -2021 2023 0
1759 1947 -2023 0
1759 2021 -2023 0
1947 2021 -2023 0
-1760 -1948 -2024 0
1760 1948 -2024 0
-1760 1948 2024 0
1760 -1948 2024 0
-2024 -2023 -1980 0
2024 2023 -1980 0
-2024 2023 1980 0
2024 -2023 1980 0
-1760 -1948 2025 0
-1760 -2023 2025 0
-1948 -2023 2025 0
1760 1948 -2025 0
1760 2023 -2025 0
1948 2023 -2025 0
-1761 -1949 -2026 0
1761 1949 -2026 0
-1761 1949 2026 0
1761 -1949 2026 0
-2026 -2025 -1981 0
2026 2025 -1981 0
-2026 2025 1981 0
2026 -2025 1981 0
-1761 -1949 2027 0
-1761 -2025 2027 0
-1949 -2025 2027 0
1761 1949 -2027 0
1761 2025 -2027 0
1949 2025 -2027 0
-1762 -1950 -2028 0
1762 1950 -2028 0
-1762 1950 2028 0
1762 -1950 2028 0
-2028 -2027 -1982 0
2028 2027 -1982 0
-2028 2027 1982 0
2028 -2027 1982 0
-1762 -1950 2029 0
-1762 -2027 2029 0
-1950 -2027 2029 0
1762 1950 -2029 0
1762 2027 -2029 0
1950 2027 -2029 0
-1763 -1951 -2030 0
1763 1951 -2030 0
-1763 1951 2030 0
1763 -1951 2030 0
-2030 -2029 -1983 0
2030 2029 -1983 0
-2030 2029 1983 0
2030 -2029 1983 0
-1763 -1951 2031 0
-1763 -2029 2031 0
-1951 -2029 2031 0
1763 1951 -2031 0
1763 2029 -2031 0
1951 2029 -2031 0
-1764 -1952 -2032 0
1764 1952 -2032 0
-1764 1952 2032 0
1764 -1952 2032 0
-2032 -2031 -1984 0
2032 2031 -1984 0
-2032 2031 1984 0
2032 -2031 1984 0
-1764 -1952 2033 0
-1764 -2031 2033 0
-1952 -2031 2033 0
1764 1952 -2033 0
1764 2031 -2033 0
1952 2031 -2033 0
-1765 -1953 -2034 0
1765 1953 -2034 0
-1765 1953 2034 0
1765 -1953 2034 0
-2034 -2033 -1985 0
2034 2033 -1985 0
-2034 2033 1985 0
2034 -2033 1985 0
-1765 -1953 2035 0
-1765 -2033 2035 0
-1953 -2033 2035 0
1765 1953 -2035 0
1765 2033 -2035 0
1953 2033 -2035 0
-1766 -1954 -2036 0
1766 1954 -2036 0
-1766 1954 2036 0
1766 -1954 2036 0
-2036 -2035 -1986 0
2036 2035 -1986 0
-2036 2035 1986 0
2036 -2035 1986 0
-1766 -1954 2037 0
-1766 -2035 2037 0
-1954 -2035 2037 0
1766 1954 -2037 0
1766 2035 -2037 0
1954 2035 -2037 0
-1767 -1955 -2038 0
1767 1955 -2038 0
-1767 1955 2038 0
1767 -1955 2038 0
-2038 -2037 -1987 0
2038 2037 -1987 0
-2038 2037 1987 0
2038 -2037 1987 0
-1767 -1955 2039 0
-1767 -2037 2039 0
-1955 -2037 2039 0
1767 1955 -2039 0
1767 2037 -2039 0
1955 2037 -2039 0
-1768 -1956 -2040 0
1768 1956 -2040 0
-1768 1956 2040 0
1768 -1956 2040 0
-2040 -2039 -1988 0
2040 2039 -1988 0
-2040 2039 1988 0
2040 -2039 1988 0
-1768 -1956 2041 0
-1768 -2039 2041 0
-1956 -2039 2041 0
1768 1956 -2041 0
1768 2039 -2041 0
1956 2039 -2041 0
-1769 -1957 -2042 0
1769 1957 -2042 0
-1769 1957 2042 0
1769 -1957 2042 0
-2042 -2041 -1989 0
2042 2041 -1989 0
-2042 2041 1989 0
2042 -2041 1989 0
-1769 -1957 2043 0
-1769 -2041 2043 0
-1957 -2041 2043 0
1769 1957 -2043 0
1769 2041 -2043 0
1957 2041 -2043 0
-1770 -1958 -2044 0
1770 1958 -2044 0
-1770 1958 2044 0
1770 -1958 2044 0
-2044 -2043 -1990 0
2044 2043 -1990 0
-2044 2043 1990 0
2044 -2043 1990 0
-1770 -1958 2045 0
-1770 -2043 2045 0
-1958 -2043 2045 0
1770 1958 -2045 0
1770 2043 -2045 0
1958 2043 -2045 0
-1771 -1959 -2046 0
1771 1959 -2046 0
-1771 1959 2046 0
1771 -1959 2046 0
-2046 -2045 -1991 0
2046 2045 -1991 0
-2046 2045 1991 0
2046 -2045 1991 0
-1771 -1959 2047 0
-1771 -2045 2047 0
-1959 -2045 2047 0
1771 1959 -2047 0
1771 2045 -2047 0
1959 2045 -2047 0
-1772 -1960 -2048 0
1772 1960 -2048 0
-1772 1960 2048 0
1772 -1960 2048 0
-2048 -2047 -1992 0
2048 2047 -1992 0
-2048 2047 1992 0
2048 -2047 1992 0
-1772 -1960 2049 0
-1772 -2047 2049 0
-1960 -2047 2049 0
1772 1960 -2049 0
1772 2047 -2049 0
1960 2047 -2049 0
-1773 -1961 -2050 0
1773 1961 -2050 0
-1773 1961 2050 0
1773 -1961 2050 0
-2050 -2049 -1993 0
2050 2049 -1993 0
-2050 2049 1993 0
2050 -2049 1993 0
-1773 -1961 2051 0
-1773 -2049 2051 0
-1961 -2049 2051 0
1773 1961 -2051 0
1773 2049 -2051 0
1961 2049 -2051 0
-1774 -1962 -2052 0
1774 1962 -2052 0
-1774 1962 2052 0
1774 -1962 2052 0
-2052 -2051 -1994 0
2052 2051 -1994 0
-2052 2051 1994 0
2052 -2051 1994 0
-1774 -1962 2053 0
-1774 -2051 2053 0
-1962 -2051 2053 0
1774 1962 -2053 0
1774 2051 -2053 0
1962 2051 -2053 0
-1775 -1963 -2054 0
1775 1963 -2054 0
-1775 1963 2054 0
1775 -1963 2054 0
-2054 -2053 -1995 0
2054 2053 -1995 0
-2054 2053 1995 0
2054 -2053 1995 0
-1775 -1963 2055 0
-1775 -2053 2055 0
-1963 -2053 2055 0
1775 1963 -2055 0
1775 2053 -2055 0
1963 2053 -2055 0
-1776 -1964 -2056 0
1776 1964 -2056 0
-1776 1964 2056 0
1776 -1964 2056 0
-2056 -2055 -1996 0
2056 2055 -1996 0
-2056 2055 1996 0
2056 -2055 1996 0
-1776 -1964 2057 0
-1776 -2055 2057 0
-1964 -2055 2057 0
1776 1964 -2057 0
1776 2055 -2057 0
1964 2055 -2057 0
-1777 -1965 -2058 0
1777 1965 -2058 0
-1777 1965 2058 0
1777 -1965 2058 0
-2058 -2057 -1997 0
2058 2057 -1997 0
-2058 2057 1997 0
2058 -2057 1997 0
-1777 -1965 2059 0
-1777 -2057 2059 0
-1965 -2057 2059 0
1777 1965 -2059 0
1777 2057 -2059 0
1965 2057 -2059 0
-1778 -1966 -2060 0
1778 1966 -2060 0
-1778 1966 2060 0
1778 -1966 2060 0
-2060 -2059 -1998 0
2060 2059 -1998 0
-2060 2059 1998 0
2060 -2059 1998 0
-1841 -1967 -2061 0
1841 1967 -2061 0
-1841 1967 2061 0
1841 -1967 2061 0
-1841 -1967 2093 0
1841 -2093 0
1967 -2093 0
-1842 -1968 -2094 0
1842 1968 -2094 0
-1842 1968 2094 0
1842 -1968 2094 0
-2094 -2093 -2062 0
2094 2093 -2062 0
-2094 2093 2062 0
2094 -2093 2062 0
-1842 -1968 2095 0
-1842 -2093 2095 0
-1968 -2093 2095 0
1842 1968 -2095 0
1842 2093 -2095 0
1968 2093 -2095 0
-1843 -1969 -2096 0
1843 1969 -2096 0
-1843 1969 2096 0
1843 -1969 2096 0
-2096 -2095 -2063 0
2096 2095 -2063 0
-2096 2095 2063 0
2096 -2095 2063 0
-1843 -1969 2097 0
-1843 -2095 2097 0
-1969 -2095 2097 0
1843 1969 -2097 0
1843 2095 -2097 0
1969 2095 -2097 0
-1844 -1970 -2098 0
1844 1970 -2098 0
-1844 1970 2098 0
1844 -1970 2098 0
-2098 -2097 -2064 0
2098 2097 -2064 0
-2098 2097 2064 0
2098 -2097 2064 0
-1844 -1970 2099 0
-1844 -2097 2099 0
-1970 -2097 2099 0
1844 1970 -2099 0
1844 2097 -2099 0
1970 2097 -2099 0
-1845 -1971 -2100 0
1845 1971 -2100 0
-1845 1971 2100 0
1845 -1971 2100 0
-2100 -2099 -2065 0
2100 2099 -2065 0
-2100 2099 2065 0
2100 -2099 2065 0
-1845 -1971 2101 0
-1845 -2099 2101 0
-1971 -2099 2101 0
1845 1971 -2101 0
1845 2099 -2101 0
1971 2099 -2101 0
-1846 -1972 -2102 0
1846 1972 -2102 0
-1846 1972 2102 0
1846 -1972 2102 0
-2102 -2101 -2066 0
2102 2101 -2066 0
-2102 2101 2066 0
2102 -2101 2066 0
-1846 -1972 2103 0
-1846 -2101 2103 0
-1972 -2101 2103 0
1846 1972 -2103 0
1846 2101 -2103 0
1972 2101 -2103 0
-1847 -1973 -2104 0
1847 1973 -2104 0
-1847 1973 2104 0
1847 -1973 2104 0
-2104 -2103 -2067 0
2104 2103 -2067 0
-2104 2103 2067 0
2104 -2103 2067 0
-1847 -1973 2105 0
-1847 -2103 2105 0
-1973 -2103 2105 0
1847 1973 -2105 0
1847 2103 -2105 0
1973 2103 -2105 0
-1848 -1974 -2106 0
1848 1974 -2106 0
-1848 1974 2106 0
1848 -1974 2106 0
-2106 -2105 -2068 0
2106 2105 -2068 0
-2106 2105 2068 0
2106 -2105 2068 0
-1848 -1974 2107 0
-1848 -2105 2107 0
-1974 -2105 2107 0
1848 1974 -2107 0
1848 2105 -2107 0
1974 2105 -2107 0
-1849 -1975 -2108 0
1849 1975 -2108 0
-1849 1975 2108 0
1849 -1975 2108 0
-2108 -2107 -2069 0
2108 2107 -2069 0
-2108 2107 2069 0
2108 -2107 2069 0
-1849 -1975 2109 0
-1849 -2107 2109 0
-1975 -2107 2109 0
1849 1975 -2109 0
1849 2107 -2109 0
1975 2107 -2109 0
-1850 -1976 -2110 0
1850 1976 -2110 0
-1850 1976 2110 0
1850 -1976 2110 0
-2110 -2109 -2070 0
2110 2109 -2070 0
-2110 2109 2070 0
2110 -2109 2070 0
-1850 -1976 2111 0
-1850 -2109 2111 0
-1976 -2109 2111 0
1850 1976 -2111 0
1850 2109 -2111 0
1976 2109 -2111 0
-1851 -1977 -2112 0
1851 1977 -2112 0
-1851 1977 2112 0
1851 -1977 2112 0
-2112 -2111 -2071 0
2112 2111 -2071 0
-2112 2111 2071 0
2112 -2111 2071 0
-1851 -1977 2113 0
-1851 -2111 2113 0
-1977 -2111 2113 0
1851 1977 -2113 0
1851 2111 -2113 0
1977 2111 -2113 0
-1852 -1978 -2114 0
1852 1978 -2114 0
-1852 1978 2114 0
1852 -1978 2114 0
-2114 -2113 -2072 0
2114 2113 -2072 0
-2114 2113 2072 0
2114 -2113 2072 0
-1852 -1978 2115 0
-1852 -2113 2115 0
-1978 -2113 2115 0
1852 1978 -2115 0
1852 2113 -2115 0
1978 2113 -2115 0
-1853 -1979 -2116 0
1853 1979 -2116 0
-1853 1979 2116 0
1853 -1979 2116 0
-2116 -2115 -2073 0
2116 2115 -2073 0
-2116 2115 2073 0
2116 -2115 2073 0
-1853 -1979 2117 0
-1853 -2115 2117 0
-1979 -2115 2117 0
1853 1979 -2117 0
1853 2115 -2117 0
1979 2115 -2117 0
-1854 -1980 -2118 0
1854 1980 -2118 0
-1854 1980 2118 0
1854 -1980 2118 0
-2118 -2117 -2074 0
2118 2117 -2074 0
-2118 2117 2074 0
2118 -2117 2074 0
-1854 -1980 2119 0
-1854 -2117 2119 0
-1980 -2117 2119 0
1854 1980 -2119 0
1854 2117 -2119 0
1980 2117 -2119 0
-1855 -1981 -2120 0
1855 1981 -2120 0
-1855 1981 2120 0
1855 -1981 2120 0
-2120 -2119 -2075 0
2120 2119 -2075 0
-2120 2119 2075 0
2120 -2119 2075 0
-1855 -1981 2121 0
-1855 -2119 2121 0
-1981 -2119 2121 0
1855 1981 -2121 0
1855 2119 -2121 0
1981 2119 -2121 0
-1856 -1982 -2122 0
1856 1982 -2122 0
-1856 1982 2122 0
1856 -1982 2122 0
-2122 -2121 -2076 0
2122 2121 -2076 0
-2122 2121 2076 0
2122 -2121 2076 0
-1856 -1982 2123 0
-1856 -2121 2123 0
-1982 -2121 2123 0
1856 1982 -2123 0
1856 2121 -2123 0
1982 2121 -2123 0
-1857 -1983 -2124 0
1857 1983 -2124 0
-1857 1983 2124 0
1857 -1983 2124 0
-2124 -2123 -2077 0
2124 2123 -2077 0
-2124 2123 2077 0
2124 -2123 2077 0
-1857 -1983 2125 0
-1857 -2123 2125 0
-1983 -2123 2125 0
1857 1983 -2125 0
1857 2123 -2125 0
1983 2123 -2125 0
-1858 -1984 -2126 0
1858 1984 -2126 0
-1858 1984 2126 0
1858 -1984 2126 0
-2126 -2125 -2078 0
2126 2125 -2078 0
-2126 2125 2078 0
2126 -2125 2078 0
-1858 -1984 2127 0
-1858 -2125 2127 0
-1984 -2125 2127 0
1858 1984 -2127 0
1858 2125 -2127 0
1984 2125 -2127 0
-1859 -1985 -2128 0
1859 1985 -2128 0
-1859 1985 2128 0
1859 -1985 2128 0
-2128 -2127 -2079 0
2128 2127 -2079 0
-2128 2127 2079 0
2128 -2127 2079 0
-1859 -1985 2129 0
-1859 -2127 2129 0
-1985 -2127 2129 0
1859 1985 -2129 0
1859 2127 -2129 0
1985 2127 -2129 0
-1860 -1986 -2130 0
1860 1986 -2130 0
-1860 1986 2130 0
1860 -1986 2130 0
-2130 -2129 -2080 0
2130 2129 -2080 0
-2130 2129 2080 0
2130 -2129 2080 0
-1860 -1986 2131 0
-1860 -2129 2131 0
-1986 -2129 2131 0
1860 1986 -2131 0
1860 2129 -2131 0
1986 2129 -2131 0
-1861 -1987 -2132 0
1861 1987 -2132 0
-1861 1987 2132 0
1861 -1987 2132 0
-2132 -2131 -2081 0
2132 2131 -2081 0
-2132 2131 2081 0
2132 -2131 2081 0
-1861 -1987 2133 0
-1861 -2131 2133 0
-1987 -2131 2133 0
1861 1987 -2133 0
1861 2131 -2133 0
1987 2131 -2133 0
-1862 -1988 -2134 0
1862 1988 -2134 0
-1862 1988 2134 0
1862 -1988 2134 0
-2134 -2133 -2082 0
2134 2133 -2082 0
-2134 2133 2082 0
2134 -2133 2082 0
-1862 -1988 2135 0
-1862 -2133 2135 0
-1988 -2133 2135 0
1862 1988 -2135 0
1862 2133 -2135 0
1988 2133 -2135 0
-1863 -1989 -2136 0
1863 1989 -2136 0
-1863 1989 2136 0
1863 -1989 2136 0
-2136 -2135 -2083 0
2136 2135 -2083 0
-2136 2135 2083 0
2136 -2135 2083 0
-1863 -1989 2137 0
-1863 -2135 2137 0
-1989 -2135 2137 0
1863 1989 -2137 0
1863 2135 -2137 0
1989 2135 -2137 0
-1864 -1990 -2138 0
1864 1990 -2138 0
-1864 1990 2138 0
1864 -1990 2138 0
-2138 -2137 -2084 0
2138 2137 -2084 0
-2138 2137 2084 0
2138 -2137 2084 0
-1864 -1990 2139 0
-1864 -2137 2139 0
-1990 -2137 2139 0
1864 1990 -2139 0
1864 2137 -2139 0
1990 2137 -2139 0
-1865 -1991 -2140 0
1865 1991 -2140 0
-1865 1991 2140 0
1865 -1991 2140 0
-2140 -2139 -2085 0
2140 2139 -2085 0
-2140 2139 2085 0
2140 -2139 2085 0
-1865 -1991 2141 0
-1865 -2139 2141 0
-1991 -2139 2141 0
1865 1991 -2141 0
1865 2139 -2141 0
1991 2139 -2141 0
-1866 -1992 -2142 0
1866 1992 -2142 0
-1866 1992 2142 0
1866 -1992 2142 0
-2142 -2141 -2086 0
2142 2141 -2086 0
-2142 2141 2086 0
2142 -2141 2086 0
-1866 -1992 2143 0
-1866 -2141 2143 0
-1992 -2141 2143 0
1866 1992 -2143 0
1866 2141 -2143 0
1992 2141 -2143 0
-1867 -1993 -2144 0
1867 1993 -2144 0
-1867 1993 2144 0
1867 -1993 2144 0
-2144 -2143 -2087 0
2144 2143 -2087 0
-2144 2143 2087 0
2144 -2143 2087 0
-1867 -1993 2145 0
-1867 -2143 2145 0
-1993 -2143 2145 0
1867 1993 -2145 0
1867 2143 -2145 0
1993 2143 -2145 0
-1868 -1994 -2146 0
1868 1994 -2146 0
-1868 1994 2146 0
1868 -1994 2146 0
-2146 -2145 -2088 0
2146 2145 -2088 0
-2146 2145 2088 0
2146 -2145 2088 0
-1868 -1994 2147 0
-1868 -2145 2147 0
-1994 -2145 2147 0
1868 1994 -2147 0
1868 2145 -2147 0
1994 2145 -2147 0
-1869 -1995 -2148 0
1869 1995 -2148 0
-1869 1995 2148 0
1869 -1995 2148 0
-2148 -2147 -2089 0
2148 2147 -2089 0
-2148 2147 2089 0
2148 -2147 2089 0
-1869 -1995 2149 0
-1869 -2147 2149 0
-1995 -2147 2149 0
1869 1995 -2149 0
1869 2147 -2149 0
1995 2147 -2149 0
-1870 -1996 -2150 0
1870 1996 -2150 0
-1870 1996 2150 0
1870 -1996 2150 0
-2150 -2149 -2090 0
2150 2149 -2090 0
-2150 2149 2090 0
2150 -2149 2090 0
-1870 -1996 2151 0
-1870 -2149 2151 0
-1996 -2149 2151 0
1870 1996 -2151 0
1870 2149 -2151 0
1996 2149 -2151 0
-1871 -1997 -2152 0
1871 1997 -2152 0
-1871 1997 2152 0
1871 -1997 2152 0
-2152 -2151 -2091 0
2152 2151 -2091 0
-2152 2151 2091 0
2152 -2151 2091 0
-1871 -1997 2153 0
-1871 -2151 2153 0
-1997 -2151 2153 0
1871 1997 -2153 0
1871 2151 -2153 0
1997 2151 -2153 0
-1872 -1998 -2154 0
1872 1998 -2154 0
-1872 1998 2154 0
1872 -1998 2154 0
-2154 -2153 -2092 0
2154 2153 -2092 0
-2154 2153 2092 0
2154 -2153 2092 0
-1559 -1570 -2187 0
1559 1570 -2187 0
-1559 1570 2187 0
1559 -1570 2187 0
-2187 -1579 -2155 0
2187 1579 -2155 0
-2187 1579 2155 0
2187 -1579 2155 0
-1560 -1571 -2188 0
1560 1571 -2188 0
-1560 1571 2188 0
1560 -1571 2188 0
-2188 -1580 -2156 0
2188 1580 -2156 0
-2188 1580 2156 0
2188 -1580 2156 0
-1561 -1572 -2189 0
1561 1572 -2189 0
-1561 1572 2189 0
1561 -1572 2189 0
-2189 -1581 -2157 0
2189 1581 -2157 0
-2189 1581 2157 0
2189 -1581 2157 0
-1562 -1573 -2190 0
1562 1573 -2190 0
-1562 1573 2190 0
1562 -1573 2190 0
-2190 -1582 -2158 0
2190 1582 -2158 0
-2190 1582 2158 0
2190 -1582 2158 0
-1563 -1574 -2191 0
1563 1574 -2191 0
-1563 1574 2191 0
1563 -1574 2191 0
-2191 -1583 -2159 0
2191 1583 -2159 0
-2191 1583 2159 0
2191 -1583 2159 0
-1564 -1575 -2192 0
1564 1575 -2192 0
-1564 1575 2192 0
1564 -1575 2192 0
-2192 -1584 -2160 0
2192 1584 -2160 0
-2192 1584 2160 0
2192 -1584 2160 0
-1565 -1576 -2193 0
1565 1576 -2193 0
-1565 1576 2193 0
1565 -1576 2193 0
-2193 -1585 -2161 0
2193 1585 -2161 0
-2193 1585 2161 0
2193 -1585 2161 0
-1566 -1577 -2194 0
1566 1577 -2194 0
-1566 1577 2194 0
1566 -1577 2194 0
-2194 -1586 -2162 0
2194 1586 -2162 0
-2194 1586 2162 0
2194 -1586 2162 0
-1567 -1578 -2195 0
1567 1578 -2195 0
-1567 1578 2195 0
1567 -1578 2195 0
-2195 -1587 -2163 0
2195 1587 -2163 0
-2195 1587 2163 0
2195 -1587 2163 0
-1568 -1579 -2196 0
1568 1579 -2196 0
-1568 1579 2196 0
1568 -1579 2196 0
-2196 -1588 -2164 0
2196 1588 -2164 0
-2196 1588 2164 0
2196 -1588 2164 0
-1569 -1580 -2197 0
1569 1580 -2197 0
-1569 1580 2197 0
1569 -1580 2197 0
-2197 -1557 -2165 0
2197 1557 -2165 0
-2197 1557 2165 0
2197 -1557 2165 0
-1570 -1581 -2198 0
1570 1581 -2198 0
-1570 1581 2198 0
1570 -1581 2198 0
-2198 -1558 -2166 0
2198 1558 -2166 0
-2198 1558 2166 0
2198 -1558 2166 0
-1571 -1582 -2199 0
1571 1582 -2199 0
-1571 1582 2199 0
1571 -1582 2199 0
-2199 -1559 -2167 0
2199 1559 -2167 0
-2199 1559 2167 0
2199 -1559 2167 0
-1572 -1583 -2200 0
1572 1583 -2200 0
-1572 1583 2200 0
1572 -1583 2200 0
-2200 -1560 -2168 0
2200 1560 -2168 0
-2200 1560 2168 0
2200 -1560 2168 0
-1573 -1584 -2201 0
1573 1584 -2201 0
-1573 1584 2201 0
1573 -1584 2201 0
-2201 -1561 -2169 0
2201 1561 -2169 0
-2201 1561 2169 0
2201 -1561 2169 0
-1574 -1585 -2202 0
1574 1585 -2202 0
-1574 1585 2202 0
1574 -1585 2202 0
-2202 -1562 -2170 0
2202 1562 -2170 0
-2202 1562 2170 0
2202 -1562 2170 0
-1575 -1586 -2203 0
1575 1586 -2203 0
-1575 1586 2203 0
1575 -1586 2203 0
-2203 -1563 -2171 0
2203 1563 -2171 0
-2203 1563 2171 0
2203 -1563 2171 0
-1576 -1587 -2204 0
1576 1587 -2204 0
-1576 1587 2204 0
1576 -1587 2204 0
-2204 -1564 -2172 0
2204 1564 -2172 0
-2204 1564 2172 0
2204 -1564 2172 0
-1577 -1588 -2205 0
1577 1588 -2205 0
-1577 1588 2205 0
1577 -1588 2205 0
-2205 -1565 -2173 0
2205 1565 -2173 0
-2205 1565 2173 0
2205 -1565 2173 0
-1578 -1557 -2206 0
1578 1557 -2206 0
-1578 1557 2206 0
1578 -1557 2206 0
-2206 -1566 -2174 0
2206 1566 -2174 0
-2206 1566 2174 0
2206 -1566 2174 0
-1579 -1558 -2207 0
1579 1558 -2207 0
-1579 1558 2207 0
1579 -1558 2207 0
-2207 -1567 -2175 0
2207 1567 -2175 0
-2207 1567 2175 0
2207 -1567 2175 0
-1580 -1559 -2208 0
1580 1559 -2208 0
-1580 1559 2208 0
1580 -1559 2208 0
-2208 -1568 -2176 0
2208 1568 -2176 0
-2208 1568 2176 0
2208 -1568 2176 0
-1581 -1560 -2209 0
1581 1560 -2209 0
-1581 1560 2209 0
1581 -1560 2209 0
-2209 -1569 -2177 0
2209 1569 -2177 0
-2209 1569 2177 0
2209 -1569 2177 0
-1582 -1561 -2210 0
1582 1561 -2210 0
-1582 1561 2210 0
1582 -1561 2210 0
-2210 -1570 -2178 0
2210 1570 -2178 0
-2210 1570 2178 0
2210 -1570 2178 0
-1583 -1562 -2211 0
1583 1562 -2211 0
-1583 1562 2211 0
1583 -1562 2211 0
-2211 -1571 -2179 0
2211 1571 -2179 0
-2211 1571 2179 0
2211 -1571 2179 0
-1584 -1563 -2212 0
1584 1563 -2212 0
-1584 1563 2212 0
1584 -1563 2212 0
-2212 -1572 -2180 0
2212 1572 -2180 0
-2212 1572 2180 0
2212 -1572 2180 0
-1585 -1564 -2213 0
1585 1564 -2213 0
-1585 1564 2213 0
1585 -1564 2213 0
-2213 -1573 -2181 0
2213 1573 -2181 0
-2213 1573 2181 0
2213 -1573 2181 0
-1586 -1565 -2214 0
1586 1565 -2214 0
-1586 1565 2214 0
1586 -1565 2214 0
-2214 -1574 -2182 0
2214 1574 -2182 0
-2214 1574 2182 0
2214 -1574 2182 0
-1587 -1566 -2215 0
1587 1566 -2215 0
-1587 1566 2215 0
1587 -1566 2215 0
-2215 -1575 -2183 0
2215 1575 -2183 0
-2215 1575 2183 0
2215 -1575 2183 0
-1588 -1567 -2216 0
1588 1567 -2216 0
-1588 1567 2216 0
1588 -1567 2216 0
-2216 -1576 -2184 0
2216 1576 -2184 0
-2216 1576 2184 0
2216 -1576 2184 0
-1557 -1568 -2217 0
1557 1568 -2217 0
-1557 1568 2217 0
1557 -1568 2217 0
-2217 -1577 -2185 0
2217 1577 -2185 0
-2217 1577 2185 0
2217 -1577 2185 0
-1558 -1569 -2218 0
1558 1569 -2218 0
-1558 1569 2218 0
1558 -1569 2218 0
-2218 -1578 -2186 0
2218 1578 -2186 0
-2218 1578 2186 0
2218 -1578 2186 0
-1557 -513 2219 0
-1557 -545 2219 0
-513 -545 2219 0
1557 513 -2219 0
1557 545 -2219 0
513 545 -2219 0
-1558 -514 2220 0
-1558 -546 2220 0
-514 -546 2220 0
1558 514 -2220 0
1558 546 -2220 0
514 546 -2220 0
-1559 -515 2221 0
-1559 -547 2221 0
-515 -547 2221 0
1559 515 -2221 0
1559 547 -2221 0
515 547 -2221 0
-1560 -516 2222 0
-1560 -548 2222 0
-516 -548 2222 0
1560 516 -2222 0
1560 548 -2222 0
516 548 -2222 0
-1561 -517 2223 0
-1561 -549 2223 0
-517 -549 2223 0
1561 517 -2223 0
1561 549 -2223 0
517 549 -2223 0
-1562 -518 2224 0
-1562 -550 2224 0
-518 -550 2224 0
1562 518 -2224 0
1562 550 -2224 0
518 550 -2224 0
-1563 -519 2225 0
-1563 -551 2225 0
-519 -551 2225 0
1563 519 -2225 0
1563 551 -2225 0
519 551 -2225 0
-1564 -520 2226 0
-1564 -552 2226 0
-520 -552 2226 0
1564 520 -2226 0
1564 552 -2226 0
520 552 -2226 0
-1565 -521 2227 0
-1565 -553 2227 0
-521 -553 2227 0
1565 521 -2227 0
1565 553 -2227 0
521 553 -2227 0
-1566 -522 2228 0
-1566 -554 2228 0
-522 -554 2228 0
1566 522 -2228 0
1566 554 -2228 0
522 554 -2228 0
-1567 -523 2229 0
-1567 -555 2229 0
-523 -555 2229 0
1567 523 -2229 0
1567 555 -2229 0
523 555 -2229 0
-1568 -524 2230 0
-1568 -556 2230 0
-524 -556 2230 0
1568 524 -2230 0
1568 556 -2230 0
524 556 -2230 0
-1569 -525 2231 0
-1569 -557 2231 0
-525 -557 2231 0
1569 525 -2231 0
1569 557 -2231 0
525 557 -2231 0
-1570 -526 2232 0
-1570 -558 2232 0
-526 -558 2232 0
1570 526 -2232 0
1570 558 -2232 0
526 558 -2232 0
-1571 -527 2233 0
-1571 -559 2233 0
-527 -559 2233 0
1571 527 -2233 0
1571 559 -2233 0
527 559 -2233 0
-1572 -528 2234 0
-1572 -560 2234 0
-528 -560 2234 0
1572 528 -2234 0
1572 560 -2234 0
528 560 -2234 0
-1573 -529 2235 0
-1573 -561 2235 0
-529 -561 2235 0
1573 529 -2235 0
1573 561 -2235 0
529 561 -2235 0
-1574 -530 2236 0
-1574 -562 2236 0
-530 -562 2236 0
1574 530 -2236 0
1574 562 -2236 0
530 562 -2236 0
-1575 -531 2237 0
-1575 -563 2237 0
-531 -563 2237 0
1575 531 -2237 0
1575 563 -2237 0
531 563 -2237 0
-1576 -532 2238 0
-1576 -564 2238 0
-532 -564 2238 0
1576 532 -2238 0
1576 564 -2238 0
532 564 -2238 0
-1577 -533 2239 0
-1577 -565 2239 0
-533 -565 2239 0
1577 533 -2239 0
1577 565 -2239 0
533 565 -2239 0
-1578 -534 2240 0
-1578 -566 2240 0
-534 -566 2240 0
1578 534 -2240 0
1578 566 -2240 0
534 566 -2240 0
-1579 -535 2241 0
-1579 -567 2241 0
-535 -567 2241 0
1579 535 -2241 0
1579 567 -2241 0
535 567 -2241 0
-1580 -536 2242 0
-1580 -568 2242 0
-536 -568 2242 0
1580 536 -2242 0
1580 568 -2242 0
536 568 -2242 0
-1581 -537 2243 0
-1581 -569 2243 0
-537 -569 2243 0
1581 537 -2243 0
1581 569 -2243 0
537 569 -2243 0
-1582 -538 2244 0
-1582 -570 2244 0
-538 -570 2244 0
1582 538 -2244 0
1582 570 -2244 0
538 570 -2244 0
-1583 -539 2245 0
-1583 -571 2245 0
-539 -571 2245 0
1583 539 -2245 0
1583 571 -2245 0
539 571 -2245 0
-1584 -540 2246 0
-1584 -572 2246 0
-540 -572 2246 0
1584 540 -2246 0
1584 572 -2246 0
540 572 -2246 0
-1585 -541 2247 0
-1585 -573 2247 0
-541 -573 2247 0
1585 541 -2247 0
1585 573 -2247 0
541 573 -2247 0
-1586 -542 2248 0
-1586 -574 2248 0
-542 -574 2248 0
1586 542 -2248 0
1586 574 -2248 0
542 574 -2248 0
-1587 -543 2249 0
-1587 -575 2249 0
-543 -575 2249 0
1587 543 -2249 0
1587 575 -2249 0
543 575 -2249 0
-1588 -544 2250 0
-1588 -576 2250 0
-544 -576 2250 0
1588 544 -2250 0
1588 576 -2250 0
544 576 -2250 0
-2155 -2219 -2251 0
2155 2219 -2251 0
-2155 2219 2251 0
2155 -2219 2251 0
-2155 -2219 2283 0
2155 -2283 0
2219 -2283 0
-2156 -2220 -2284 0
2156 2220 -2284 0
-2156 2220 2284 0
2156 -2220 2284 0
-2284 -2283 -2252 0
2284 2283 -2252 0
-2284 2283 2252 0
2284 -2283 2252 0
-2156 -2220 2285 0
-2156 -2283 2285 0
-2220 -2283 2285 0
2156 2220 -2285 0
2156 2283 -2285 0
2220 2283 -2285 0
-2157 -2221 -2286 0
2157 2221 -2286 0
-2157 2221 2286 0
2157 -2221 2286 0
-2286 -2285 -2253 0
2286 2285 -2253 0
-2286 2285 2253 0
2286 -2285 2253 0
-2157 -2221 2287 0
-2157 -2285 2287 0
-2221 -2285 2287 0
2157 2221 -2287 0
2157 2285 -2287 0
2221 2285 -2287 0
-2158 -2222 -2288 0
2158 2222 -2288 0
-2158 2222 2288 0
2158 -2222 2288 0
-2288 -2287 -2254 0
2288 2287 -2254 0
-2288 2287 2254 0
2288 -2287 2254 0
-2158 -2222 2289 0
-2158 -2287 2289 0
-2222 -2287 2289 0
2158 2222 -2289 0
2158 2287 -2289 0
2222 2287 -2289 0
-2159 -2223 -2290 0
2159 2223 -2290 0
-2159 2223 2290 0
2159 -2223 2290 0
-2290 -2289 -2255 0
2290 2289 -2255 0
-2290 2289 2255 0
2290 -2289 2255 0
-2159 -2223 2291 0
-2159 -2289 2291 0
-2223 -2289 2291 0
2159 2223 -2291 0
2159 2289 -2291 0
2223 2289 -2291 0
-2160 -2224 -2292 0
2160 2224 -2292 0
-2160 2224 2292 0
2160 -2224 2292 0
-2292 -2291 -2256 0
2292 2291 -2256 0
-2292 2291 2256 0
2292 -2291 2256 0
-2160 -2224 2293 0
-2160 -2291 2293 0
-2224 -2291 2293 0
2160 2224 -2293 0
2160 2291 -2293 0
2224 2291 -2293 0
-2161 -2225 -2294 0
2161 2225 -2294 0
-2161 2225 2294 0
2161 -2225 2294 0
-2294 -2293 -2257 0
2294 2293 -2257 0
-2294 2293 2257 0
2294 -2293 2257 0
-2161 -2225 2295 0
-2161 -2293 2295 0
-2225 -2293 2295 0
2161 2225 -2295 0
2161 2293 -2295 0
2225 2293 -2295 0
-2162 -2226 -2296 0
2162 2226 -2296 0
-2162 2226 2296 0
2162 -2226 2296 0
-2296 -2295 -2258 0
2296 2295 -2258 0
-2296 2295 2258 0
2296 -2295 2258 0
-2162 -2226 2297 0
-2162 -2295 2297 0
-2226 -2295 2297 0
2162 2226 -2297 0
2162 2295 -2297 0
2226 2295 -2297 0
-2163 -2227 -2298 0
2163 2227 -2298 0
-2163 2227 2298 0
2163 -2227 2298 0
-2298 -2297 -2259 0
2298 2297 -2259 0
-2298 2297 2259 0
2298 -2297 2259 0
-2163 -2227 2299 0
-2163 -2297 2299 0
-2227 -2297 2299 0
2163 2227 -2299 0
2163 2297 -2299 0
2227 2297 -2299 0
-2164 -2228 -2300 0
2164 2228 -2300 0
-2164 2228 2300 0
2164 -2228 2300 0
-2300 -2299 -2260 0
2300 2299 -2260 0
-2300 2299 2260 0
2300 -2299 2260 0
-2164 -2228 2301 0
-2164 -2299 2301 0
-2228 -2299 2301 0
2164 2228 -2301 0
2164 2299 -2301 0
2228 2299 -2301 0
-2165 -2229 -2302 0
2165 2229 -2302 0
-2165 2229 2302 0
2165 -2229 2302 0
-2302 -2301 -2261 0
2302 2301 -2261 0
-2302 2301 2261 0
2302 -2301 2261 0
-2165 -2229 2303 0
-2165 -2301 2303 0
-2229 -2301 2303 0
2165 2229 -2303 0
2165 2301 -2303 0
2229 2301 -2303 0
-2166 -2230 -2304 0
2166 2230 -2304 0
-2166 2230 2304 0
2166 -2230 2304 0
-2304 -2303 -2262 0
2304 2303 -2262 0
-2304 2303 2262 0
2304 -2303 2262 0
-2166 -2230 2305 0
-2166 -2303 2305 0
-2230 -2303 2305 0
2166 2230 -2305 0
2166 2303 -2305 0
2230 2303 -2305 0
-2167 -2231 -2306 0
2167 2231 -2306 0
-2167 2231 2306 0
2167 -2231 2306 0
-2306 -2305 -2263 0
2306 2305 -2263 0
-2306 2305 2263 0
2306 -2305 2263 0
-2167 -2231 2307 0
-2167 -2305 2307 0
-2231 -2305 2307 0
2167 2231 -2307 0
2167 2305 -2307 0
2231 2305 -2307 0
-2168 -2232 -2308 0
2168 2232 -2308 0
-2168 2232 2308 0
2168 -2232 2308 0
-2308 -2307 -2264 0
2308 2307 -2264 0
-2308 2307 2264 0
2308 -2307 2264 0
-2168 -2232 2309 0
-2168 -2307 2309 0
-2232 -2307 2309 0
2168 2232 -2309 0
2168 2307 -2309 0
2232 2307 -2309 0
-2169 -2233 -2310 0
2169 2233 -2310 0
-2169 2233 2310 0
2169 -2233 2310 0
-2310 -2309 -2265 0
2310 2309 -2265 0
-2310 2309 2265 0
2310 -2309 2265 0
-2169 -2233 2311 0
-2169 -2309 2311 0
-2233 -2309 2311 0
2169 2233 -2311 0
2169 2309 -2311 0
2233 2309 -2311 0
-2170 -2234 -2312 0
2170 2234 -2312 0
-2170 2234 2312 0
2170 -2234 2312 0
-2312 -2311 -2266 0
2312 2311 -2266 0
-2312 2311 2266 0
2312 -2311 2266 0
-2170 -2234 2313 0
-2170 -2311 2313 0
-2234 -2311 2313 0
2170 2234 -2313 0
2170 2311 -2313 0
2234 2311 -2313 0
-2171 -2235 -2314 0
2171 2235 -2314 0
-2171 2235 2314 0
2171 -2235 2314 0
-2314 -2313 -2267 0
2314 2313 -2267 0
-2314 2313 2267 0
2314 -2313 2267 0
-2171 -2235 2315 0
-2171 -2313 2315 0
-2235 -2313 2315 0
2171 2235 -2315 0
2171 2313 -2315 0
2235 2313 -2315 0
-2172 -2236 -2316 0
2172 2236 -2316 0
-2172 2236 2316 0
2172 -2236 2316 0
-2316 -2315 -2268 0
2316 2315 -2268 0
-2316 2315 2268 0
2316 -2315 2268 0
-2172 -2236 2317 0
-2172 -2315 2317 0
-2236 -2315 2317 0
2172 2236 -2317 0
2172 2315 -2317 0
2236 2315 -2317 0
-2173 -2237 -2318 0
2173 2237 -2318 0
-2173 2237 2318 0
2173 -2237 2318 0
-2318 -2317 -2269 0
2318 2317 -2269 0
-2318 2317 2269 0
2318 -2317 2269 0
-2173 -2237 2319 0
-2173 -2317 2319 0
-2237 -2317 2319 0
2173 2237 -2319 0
2173 2317 -2319 0
2237 2317 -2319 0
-2174 -2238 -2320 0
2174 2238 -2320 0
-2174 2238 2320 0
2174 -2238 2320 0
-2320 -2319 -2270 0
2320 2319 -2270 0
-2320 2319 2270 0
2320 -2319 2270 0
-2174 -2238 2321 0
-2174 -2319 2321 0
-2238 -2319 2321 0
2174 2238 -2321 0
2174 2319 -2321 0
2238 2319 -2321 0
-2175 -2239 -2322 0
2175 2239 -2322 0
-2175 2239 2322 0
2175 -2239 2322 0
-2322 -2321 -2271 0
2322 2321 -2271 0
-2322 2321 2271 0
2322 -2321 2271 0
-2175 -2239 2323 0
-2175 -2321 2323 0
-2239 -2321 2323 0
2175 2239 -2323 0
2175 2321 -2323 0
2239 2321 -2323 0
-2176 -2240 -2324 0
2176 2240 -2324 0
-2176 2240 2324 0
2176 -2240 2324 0
-2324 -2323 -2272 0
2324 2323 -2272 0
-2324 2323 2272 0
2324 -2323 2272 0
-2176 -2240 2325 0
-2176 -2323 2325 0
-2240 -2323 2325 0
2176 2240 -2325 0
2176 2323 -2325 0
2240 2323 -2325 0
-2177 -2241 -2326 0
2177 2241 -2326 0
-2177 2241 2326 0
2177 -2241 2326 0
-2326 -2325 -2273 0
2326 2325 -2273 0
-2326 2325 2273 0
2326 -2325 2273 0
-2177 -2241 2327 0
-2177 -2325 2327 0
-2241 -2325 2327 0
2177 2241 -2327 0
2177 2325 -2327 0
2241 2325 -2327 0
-2178 -2242 -2328 0
2178 2242 -2328 0
-2178 2242 2328 0
2178 -2242 2328 0
-2328 -2327 -2274 0
2328 2327 -2274 0
-2328 2327 2274 0
2328 -2327 2274 0
-2178 -2242 2329 0
-2178 -2327 2329 0
-2242 -2327 2329 0
2178 2242 -2329 0
2178 2327 -2329 0
2242 2327 -2329 0
-2179 -2243 -2330 0
2179 2243 -2330 0
-2179 2243 2330 0
2179 -2243 2330 0
-2330 -2329 -2275 0
2330 2329 -2275 0
-2330 2329 2275 0
2330 -2329 2275 0
-2179 -2243 2331 0
-2179 -2329 2331 0
-2243 -2329 2331 0
2179 2243 -2331 0
2179 2329 -2331 0
2243 2329 -2331 0
-2180 -2244 -2332 0
2180 2244 -2332 0
-2180 2244 2332 0
2180 -2244 2332 0
-2332 -2331 -2276 0
2332 2331 -2276 0
-2332 2331 2276 0
2332 -2331 2276 0
-2180 -2244 2333 0
-2180 -2331 2333 0
-2244 -2331 2333 0
2180 2244 -2333 0
2180 2331 -2333 0
2244 2331 -2333 0
-2181 -2245 -2334 0
2181 2245 -2334 0
-2181 2245 2334 0
2181 -2245 2334 0
-2334 -2333 -2277 0
2334 2333 -2277 0
-2334 2333 2277 0
2334 -2333 2277 0
-2181 -2245 2335 0
-2181 -2333 2335 0
-2245 -2333 2335 0
2181 2245 -2335 0
2181 2333 -2335 0
2245 2333 -2335 0
-2182 -2246 -2336 0
2182 2246 -2336 0
-2182 2246 2336 0
2182 -2246 2336 0
-2336 -2335 -2278 0
2336 2335 -2278 0
-2336 2335 2278 0
2336 -2335 2278 0
-2182 -2246 2337 0
-2182 -2335 2337 0
-2246 -2335 2337 0
2182 2246 -2337 0
2182 2335 -2337 0
2246 2335 -2337 0
-2183 -2247 -2338 0
2183 2247 -2338 0
-2183 2247 2338 0
2183 -2247 2338 0
-2338 -2337 -2279 0
2338 2337 -2279 0
-2338 2337 2279 0
2338 -2337 2279 0
-2183 -2247 2339 0
-2183 -2337 2339 0
-2247 -2337 2339 0
2183 2247 -2339 0
2183 2337 -2339 0
2247 2337 -2339 0
-2184 -2248 -2340 0
2184 2248 -2340 0
-2184 2248 2340 0
2184 -2248 2340 0
-2340 -2339 -2280 0
2340 2339 -2280 0
-2340 2339 2280 0
2340 -2339 2280 0
-2184 -2248 2341 0
-2184 -2339 2341 0
-2248 -2339 2341 0
2184 2248 -2341 0
2184 2339 -2341 0
2248 2339 -2341 0
-2185 -2249 -2342 0
2185 2249 -2342 0
-2185 2249 2342 0
2185 -2249 2342 0
-2342 -2341 -2281 0
2342 2341 -2281 0
-2342 2341 2281 0
2342 -2341 2281 0
-2185 -2249 2343 0
-2185 -2341 2343 0
-2249 -2341 2343 0
2185 2249 -2343 0
2185 2341 -2343 0
2249 2341 -2343 0
-2186 -2250 -2344 0
2186 2250 -2344 0
-2186 2250 2344 0
2186 -2250 2344 0
-2344 -2343 -2282 0
2344 2343 -2282 0
-2344 2343 2282 0
2344 -2343 2282 0
-577 -2061 -2345 0
577 2061 -2345 0
-577 2061 2345 0
577 -2061 2345 0
-577 -2061 2377 0
577 -2377 0
2061 -2377 0
-578 -2062 -2378 0
578 2062 -2378 0
-578 2062 2378 0
578 -2062 2378 0
-2378 -2377 -2346 0
2378 2377 -2346 0
-2378 2377 2346 0
2378 -2377 2346 0
-578 -2062 2379 0
-578 -2377 2379 0
-2062 -2377 2379 0
578 2062 -2379 0
578 2377 -2379 0
2062 2377 -2379 0
-579 -2063 -2380 0
579 2063 -2380 0
-579 2063 2380 0
579 -2063 2380 0
-2380 -2379 -2347 0
2380 2379 -2347 0
-2380 2379 2347 0
2380 -2379 2347 0
-579 -2063 2381 0
-579 -2379 2381 0
-2063 -2379 2381 0
579 2063 -2381 0
579 2379 -2381 0
2063 2379 -2381 0
-580 -2064 -2382 0
580 2064 -2382 0
-580 2064 2382 0
580 -2064 2382 0
-2382 -2381 -2348 0
2382 2381 -2348 0
-2382 2381 2348 0
2382 -2381 2348 0
-580 -2064 2383 0
-580 -2381 2383 0
-2064 -2381 2383 0
580 2064 -2383 0
580 2381 -2383 0
2064 2381 -2383 0
-581 -2065 -2384 0
581 2065 -2384 0
-581 2065 2384 0
581 -2065 2384 0
-2384 -2383 -2349 0
2384 2383 -2349 0
-2384 2383 2349 0
2384 -2383 2349 0
-581 -2065 2385 0
-581 -2383 2385 0
-2065 -2383 2385 0
581 2065 -2385 0
581 2383 -2385 0
2065 2383 -2385 0
-582 -2066 -2386 0
582 2066 -2386 0
-582 2066 2386 0
582 -2066 2386 0
-2386 -2385 -2350 0
2386 2385 -2350 0
-2386 2385 2350 0
2386 -2385 2350 0
-582 -2066 2387 0
-582 -2385 2387 0
-2066 -2385 2387 0
582 2066 -2387 0
582 2385 -2387 0
2066 2385 -2387 0
-583 -2067 -2388 0
583 2067 -2388 0
-583 2067 2388 0
583 -2067 2388 0
-2388 -2387 -2351 0
2388 2387 -2351 0
-2388 2387 2351 0
2388 -2387 2351 0
-583 -2067 2389 0
-583 -2387 2389 0
-2067 -2387 2389 0
583 2067 -2389 0
583 2387 -2389 0
2067 2387 -2389 0
-584 -2068 -2390 0
584 2068 -2390 0
-584 2068 2390 0
584 -2068 2390 0
-2390 -2389 -2352 0
2390 2389 -2352 0
-2390 2389 2352 0
2390 -2389 2352 0
-584 -2068 2391 0
-584 -2389 2391 0
-2068 -2389 2391 0
584 2068 -2391 0
584 2389 -2391 0
2068 2389 -2391 0
-585 -2069 -2392 0
585 2069 -2392 0
-585 2069 2392 0
585 -2069 2392 0
-2392 -2391 -2353 0
2392 2391 -2353 0
-2392 2391 2353 0
2392 -2391 2353 0
-585 -2069 2393 0
-585 -2391 2393 0
-2069 -2391 2393 0
585 2069 -2393 0
585 2391 -2393 0
2069 2391 -2393 0
-586 -2070 -2394 0
586 2070 -2394 0
-586 2070 2394 0
586 -2070 2394 0
-2394 -2393 -2354 0
2394 2393 -2354 0
-2394 2393 2354 0
2394 -2393 2354 0
-586 -2070 2395 0
-586 -2393 2395 0
-2070 -2393 2395 0
586 2070 -2395 0
586 2393 -2395 0
2070 2393 -2395 0
-587 -2071 -2396 0
587 2071 -2396 0
-587 2071 2396 0
587 -2071 2396 0
-2396 -2395 -2355 0
2396 2395 -2355 0
-2396 2395 2355 0
2396 -2395 2355 0
-587 -2071 2397 0
-587 -2395 2397 0
-2071 -2395 2397 0
587 2071 -2397 0
587 2395 -2397 0
2071 2395 -2397 0
-588 -2072 -2398 0
588 2072 -2398 0
-588 2072 2398 0
588 -2072 2398 0
-2398 -2397 -2356 0
2398 2397 -2356 0
-2398 2397 2356 0
2398 -2397 2356 0
-588 -2072 2399 0
-588 -2397 2399 0
-2072 -2397 2399 0
588 2072 -2399 0
588 2397 -2399 0
2072 2397 -2399 0
-589 -2073 -2400 0
589 2073 -2400 0
-589 2073 2400 0
589 -2073 2400 0
-2400 -2399 -2357 0
2400 2399 -2357 0
-2400 2399 2357 0
2400 -2399 2357 0
-589 -2073 2401 0
-589 -2399 2401 0
-2073 -2399 2401 0
589 2073 -2401 0
589 2399 -2401 0
2073 2399 -2401 0
-590 -2074 -2402 0
590 2074 -2402 0
-590 2074 2402 0
590 -2074 2402 0
-2402 -2401 -2358 0
2402 2401 -2358 0
-2402 2401 2358 0
2402 -2401 2358 0
-590 -2074 2403 0
-590 -2401 2403 0
-2074 -2401 2403 0
590 2074 -2403 0
590 2401 -2403 0
2074 2401 -2403 0
-591 -2075 -2404 0
591 2075 -2404 0
-591 2075 2404 0
591 -2075 2404 0
-2404 -2403 -2359 0
2404 2403 -2359 0
-2404 2403 2359 0
2404 -2403 2359 0
-591 -2075 2405 0
-591 -2403 2405 0
-2075 -2403 2405 0
591 2075 -2405 0
591 2403 -2405 0
2075 2403 -2405 0
-592 -2076 -2406 0
592 2076 -2406 0
-592 2076 2406 0
592 -2076 2406 0
-2406 -2405 -2360 0
2406 2405 -2360 0
-2406 2405 2360 0
2406 -2405 2360 0
-592 -2076 2407 0
-592 -2405 2407 0
-2076 -2405 2407 0
592 2076 -2407 0
592 2405 -2407 0
2076 2405 -2407 0
-593 -2077 -2408 0
593 2077 -2408 0
-593 2077 2408 0
593 -2077 2408 0
-2408 -2407 -2361 0
2408 2407 -2361 0
-2408 2407 2361 0
2408 -2407 2361 0
-593 -2077 2409 0
-593 -2407 2409 0
-2077 -2407 2409 0
593 2077 -2409 0
593 2407 -2409 0
2077 2407 -2409 0
-594 -2078 -2410 0
594 2078 -2410 0
-594 2078 2410 0
594 -2078 2410 0
-2410 -2409 -2362 0
2410 2409 -2362 0
-2410 2409 2362 0
2410 -2409 2362 0
-594 -2078 2411 0
-594 -2409 2411 0
-2078 -2409 2411 0
594 2078 -2411 0
594 2409 -2411 0
2078 2409 -2411 0
-595 -2079 -2412 0
595 2079 -2412 0
-595 2079 2412 0
595 -2079 2412 0
-2412 -2411 -2363 0
2412 2411 -2363 0
-2412 2411 2363 0
2412 -2411 2363 0
-595 -2079 2413 0
-595 -2411 2413 0
-2079 -2411 2413 0
595 2079 -2413 0
595 2411 -2413 0
2079 2411 -2413 0
-596 -2080 -2414 0
596 2080 -2414 0
-596 2080 2414 0
596 -2080 2414 0
-2414 -2413 -2364 0
2414 2413 -2364 0
-2414 2413 2364 0
2414 -2413 2364 0
-596 -2080 2415 0
-596 -2413 2415 0
-2080 -2413 2415 0
596 2080 -2415 0
596 2413 -2415 0
2080 2413 -2415 0
-597 -2081 -2416 0
597 2081 -2416 0
-597 2081 2416 0
597 -2081 2416 0
-2416 -2415 -2365 0
2416 2415 -2365 0
-2416 2415 2365 0
2416 -2415 2365 0
-597 -2081 2417 0
-597 -2415 2417 0
-2081 -2415 2417 0
597 2081 -2417 0
597 2415 -2417 0
2081 2415 -2417 0
-598 -2082 -2418 0
598 2082 -2418 0
-598 2082 2418 0
598 -2082 2418 0
-2418 -2417 -2366 0
2418 2417 -2366 0
-2418 2417 2366 0
2418 -2417 2366 0
-598 -2082 2419 0
-598 -2417 2419 0
-2082 -2417 2419 0
598 2082 -2419 0
598 2417 -2419 0
2082 2417 -2419 0
-599 -2083 -2420 0
599 2083 -2420 0
-599 2083 2420 0
599 -2083 2420 0
-2420 -2419 -2367 0
2420 2419 -2367 0
-2420 2419 2367 0
2420 -2419 2367 0
-599 -2083 2421 0
-599 -2419 2421 0
-2083 -2419 2421 0
599 2083 -2421 0
599 2419 -2421 0
2083 2419 -2421 0
-600 -2084 -2422 0
600 2084 -2422 0
-600 2084 2422 0
600 -2084 2422 0
-2422 -2421 -2368 0
2422 2421 -2368 0
-2422 2421 2368 0
2422 -2421 2368 0
-600 -2084 2423 0
-600 -2421 2423 0
-2084 -2421 2423 0
600 2084 -2423 0
600 2421 -2423 0
2084 2421 -2423 0
-601 -2085 -2424 0
601 2085 -2424 0
-601 2085 2424 0
601 -2085 2424 0
-2424 -2423 -2369 0
2424 2423 -2369 0
-2424 2423 2369 0
2424 -2423 2369 0
-601 -2085 2425 0
-601 -2423 2425 0
-2085 -2423 2425 0
601 2085 -2425 0
601 2423 -2425 0
2085 2423 -2425 0
-602 -2086 -2426 0
602 2086 -2426 0
-602 2086 2426 0
602 -2086 2426 0
-2426 -2425 -2370 0
2426 2425 -2370 0
-2426 2425 2370 0
2426 -2425 2370 0
-602 -2086 2427 0
-602 -2425 2427 0
-2086 -2425 2427 0
602 2086 -2427 0
602 2425 -2427 0
2086 2425 -2427 0
-603 -2087 -2428 0
603 2087 -2428 0
-603 2087 2428 0
603 -2087 2428 0
-2428 -2427 -2371 0
2428 2427 -2371 0
-2428 2427 2371 0
2428 -2427 2371 0
-603 -2087 2429 0
-603 -2427 2429 0
-2087 -2427 2429 0
603 2087 -2429 0
603 2427 -2429 0
2087 2427 -2429 0
-604 -2088 -2430 0
604 2088 -2430 0
-604 2088 2430 0
604 -2088 2430 0
-2430 -2429 -2372 0
2430 2429 -2372 0
-2430 2429 2372 0
2430 -2429 2372 0
-604 -2088 2431 0
-604 -2429 2431 0
-2088 -2429 2431 0
604 2088 -2431 0
604 2429 -2431 0
2088 2429 -2431 0
-605 -2089 -2432 0
605 2089 -2432 0
-605 2089 2432 0
605 -2089 2432 0
-2432 -2431 -2373 0
2432 2431 -2373 0
-2432 2431 2373 0
2432 -2431 2373 0
-605 -2089 2433 0
-605 -2431 2433 0
-2089 -2431 2433 0
605 2089 -2433 0
605 2431 -2433 0
2089 2431 -2433 0
-606 -2090 -2434 0
606 2090 -2434 0
-606 2090 2434 0
606 -2090 2434 0
-2434 -2433 -2374 0
2434 2433 -2374 0
-2434 2433 2374 0
2434 -2433 2374 0
-606 -2090 2435 0
-606 -2433 2435 0
-2090 -2433 2435 0
606 2090 -2435 0
606 2433 -2435 0
2090 2433 -2435 0
-607 -2091 -2436 0
607 2091 -2436 0
-607 2091 2436 0
607 -2091 2436 0
-2436 -2435 -2375 0
2436 2435 -2375 0
-2436 2435 2375 0
2436 -2435 2375 0
-607 -2091 2437 0
-607 -2435 2437 0
-2091 -2435 2437 0
607 2091 -2437 0
607 2435 -2437 0
2091 2435 -2437 0
-608 -2092 -2438 0
608 2092 -2438 0
-608 2092 2438 0
608 -2092 2438 0
-2438 -2437 -2376 0
2438 2437 -2376 0
-2438 2437 2376 0
2438 -2437 2376 0
-2061 -2251 -2439 0
2061 2251 -2439 0
-2061 2251 2439 0
2061 -2251 2439 0
-2061 -2251 2471 0
2061 -2471 0
2251 -2471 0
-2062 -2252 -2472 0
2062 2252 -2472 0
-2062 2252 2472 0
2062 -2252 2472 0
-2472 -2471 -2440 0
2472 2471 -2440 0
-2472 2471 2440 0
2472 -2471 2440 0
-2062 -2252 2473 0
-2062 -2471 2473 0
-2252 -2471 2473 0
2062 2252 -2473 0
2062 2471 -2473 0
2252 2471 -2473 0
-2063 -2253 -2474 0
2063 2253 -2474 0
-2063 2253 2474 0
2063 -2253 2474 0
-2474 -2473 -2441 0
2474 2473 -2441 0
-2474 2473 2441 0
2474 -2473 2441 0
-2063 -2253 2475 0
-2063 -2473 2475 0
-2253 -2473 2475 0
2063 2253 -2475 0
2063 2473 -2475 0
2253 2473 -2475 0
-2064 -2254 -2476 0
2064 2254 -2476 0
-2064 2254 2476 0
2064 -2254 2476 0
-2476 -2475 -2442 0
2476 2475 -2442 0
-2476 2475 2442 0
2476 -2475 2442 0
-2064 -2254 2477 0
-2064 -2475 2477 0
-2254 -2475 2477 0
2064 2254 -2477 0
2064 2475 -2477 0
2254 2475 -2477 0
-2065 -2255 -2478 0
2065 2255 -2478 0
-2065 2255 2478 0
2065 -2255 2478 0
-2478 -2477 -2443 0
2478 2477 -2443 0
-2478 2477 2443 0
2478 -2477 2443 0
-2065 -2255 2479 0
-2065 -2477 2479 0
-2255 -2477 2479 0
2065 2255 -2479 0
2065 2477 -2479 0
2255 2477 -2479 0
-2066 -2256 -2480 0
2066 2256 -2480 0
-2066 2256 2480 0
2066 -2256 2480 0
-2480 -2479 -2444 0
2480 2479 -2444 0
-2480 2479 2444 0
2480 -2479 2444 0
-2066 -2256 2481 0
-2066 -2479 2481 0
-2256 -2479 2481 0
2066 2256 -2481 0
2066 2479 -2481 0
2256 2479 -2481 0
-2067 -2257 -2482 0
2067 2257 -2482 0
-2067 2257 2482 0
2067 -2257 2482 0
-2482 -2481 -2445 0
2482 2481 -2445 0
-2482 2481 2445 0
2482 -2481 2445 0
-2067 -2257 2483 0
-2067 -2481 2483 0
-2257 -2481 2483 0
2067 2257 -2483 0
2067 2481 -2483 0
2257 2481 -2483 0
-2068 -2258 -2484 0
2068 2258 -2484 0
-2068 2258 2484 0
2068 -2258 2484 0
-2484 -2483 -2446 0
2484 2483 -2446 0
-2484 2483 2446 0
2484 -2483 2446 0
-2068 -2258 2485 0
-2068 -2483 2485 0
-2258 -2483 2485 0
2068 2258 -2485 0
2068 2483 -2485 0
2258 2483 -2485 0
-2069 -2259 -2486 0
2069 2259 -2486 0
-2069 2259 2486 0
2069 -2259 2486 0
-2486 -2485 -2447 0
2486 2485 -2447 0
-2486 2485 2447 0
2486 -2485 2447 0
-2069 -2259 2487 0
-2069 -2485 2487 0
-2259 -2485 2487 0
2069 2259 -2487 0
2069 2485 -2487 0
2259 2485 -2487 0
-2070 -2260 -2488 0
2070 2260 -2488 0
-2070 2260 2488 0
2070 -2260 2488 0
-2488 -2487 -2448 0
2488 2487 -2448 0
-2488 2487 2448 0
2488 -2487 2448 0
-2070 -2260 2489 0
-2070 -2487 2489 0
-2260 -2487 2489 0
2070 2260 -2489 0
2070 2487 -2489 0
2260 2487 -2489 0
-2071 -2261 -2490 0
2071 2261 -2490 0
-2071 2261 2490 0
2071 -2261 2490 0
-2490 -2489 -2449 0
2490 2489 -2449 0
-2490 2489 2449 0
2490 -2489 2449 0
-2071 -2261 2491 0
-2071 -2489 2491 0
-2261 -2489 2491 0
2071 2261 -2491 0
2071 2489 -2491 0
2261 2489 -2491 0
-2072 -2262 -2492 0
2072 2262 -2492 0
-2072 2262 2492 0
2072 -2262 2492 0
-2492 -2491 -2450 0
2492 2491 -2450 0
-2492 2491 2450 0
2492 -2491 2450 0
-2072 -2262 2493 0
-2072 -2491 2493 0
-2262 -2491 2493 0
2072 2262 -2493 0
2072 2491 -2493 0
2262 2491 -2493 0
-2073 -2263 -2494 0
2073 2263 -2494 0
-2073 2263 2494 0
2073 -2263 2494 0
-2494 -2493 -2451 0
2494 2493 -2451 0
-2494 2493 2451 0
2494 -2493 2451 0
-2073 -2263 2495 0
-2073 -2493 2495 0
-2263 -2493 2495 0
2073 2263 -2495 0
2073 2493 -2495 0
2263 2493 -2495 0
-2074 -2264 -2496 0
2074 2264 -2496 0
-2074 2264 2496 0
2074 -2264 2496 0
-2496 -2495 -2452 0
2496 2495 -2452 0
-2496 2495 2452 0
2496 -2495 2452 0
-2074 -2264 2497 0
-2074 -2495 2497 0
-2264 -2495 2497 0
2074 2264 -2497 0
2074 2495 -2497 0
2264 2495 -2497 0
-2075 -2265 -2498 0
2075 2265 -2498 0
-2075 2265 2498 0
2075 -2265 2498 0
-2498 -2497 -2453 0
2498 2497 -2453 0
-2498 2497 2453 0
2498 -2497 2453 0
-2075 -2265 2499 0
-2075 -2497 2499 0
-2265 -2497 2499 0
2075 2265 -2499 0
2075 2497 -2499 0
2265 2497 -2499 0
-2076 -2266 -2500 0
2076 2266 -2500 0
-2076 2266 2500 0
2076 -2266 2500 0
-2500 -2499 -2454 0
2500 2499 -2454 0
-2500 2499 2454 0
2500 -2499 2454 0
-2076 -2266 2501 0
-2076 -2499 2501 0
-2266 -2499 2501 0
2076 2266 -2501 0
2076 2499 -2501 0
2266 2499 -2501 0
-2077 -2267 -2502 0
2077 2267 -2502 0
-2077 2267 2502 0
2077 -2267 2502 0
-2502 -2501 -2455 0
2502 2501 -2455 0
-2502 2501 2455 0
2502 -2501 2455 0
-2077 -2267 2503 0
-2077 -2501 2503 0
-2267 -2501 2503 0
2077 2267 -2503 0
2077 2501 -2503 0
2267 2501 -2503 0
-2078 -2268 -2504 0
2078 2268 -2504 0
-2078 2268 2504 0
2078 -2268 2504 0
-2504 -2503 -2456 0
2504 2503 -2456 0
-2504 2503 2456 0
2504 -2503 2456 0
-2078 -2268 2505 0
-2078 -2503 2505 0
-2268 -2503 2505 0
2078 2268 -2505 0
2078 2503 -2505 0
2268 2503 -2505 0
-2079 -2269 -2506 0
2079 2269 -2506 0
-2079 2269 2506 0
2079 -2269 2506 0
-2506 -2505 -2457 0
2506 2505 -2457 0
-2506 2505 2457 0
2506 -2505 2457 0
-2079 -2269 2507 0
-2079 -2505 2507 0
-2269 -2505 2507 0
2079 2269 -2507 0
2079 2505 -2507 0
2269 2505 -2507 0
-2080 -2270 -2508 0
2080 2270 -2508 0
-2080 2270 2508 0
2080 -2270 2508 0
-2508 -2507 -2458 0
2508 2507 -2458 0
-2508 2507 2458 0
2508 -2507 2458 0
-2080 -2270 2509 0
-2080 -2507 2509 0
-2270 -2507 2509 0
2080 2270 -2509 0
2080 2507 -2509 0
2270 2507 -2509 0
-2081 -2271 -2510 0
2081 2271 -2510 0
-2081 2271 2510 0
2081 -2271 2510 0
-2510 -2509 -2459 0
2510 2509 -2459 0
-2510 2509 2459 0
2510 -2509 2459 0
-2081 -2271 2511 0
-2081 -2509 2511 0
-2271 -2509 2511 0
2081 2271 -2511 0
2081 2509 -2511 0
2271 2509 -2511 0
-2082 -2272 -2512 0
2082 2272 -2512 0
-2082 2272 2512 0
2082 -2272 2512 0
-2512 -2511 -2460 0
2512 2511 -2460 0
-2512 2511 2460 0
2512 -2511 2460 0
-2082 -2272 2513 0
-2082 -2511 2513 0
-2272 -2511 2513 0
2082 2272 -2513 0
2082 2511 -2513 0
2272 2511 -2513 0
-2083 -2273 -2514 0
2083 2273 -2514 0
-2083 2273 2514 0
2083 -2273 2514 0
-2514 -2513 -2461 0
2514 2513 -2461 0
-2514 2513 2461 0
2514 -2513 2461 0
-2083 -2273 2515 0
-2083 -2513 2515 0
-2273 -2513 2515 0
2083 2273 -2515 0
2083 2513 -2515 0
2273 2513 -2515 0
-2084 -2274 -2516 0
2084 2274 -2516 0
-2084 2274 2516 0
2084 -2274 2516 0
-2516 -2515 -2462 0
2516 2515 -2462 0
-2516 2515 2462 0
2516 -2515 2462 0
-2084 -2274 2517 0
-2084 -2515 2517 0
-2274 -2515 2517 0
2084 2274 -2517 0
2084 2515 -2517 0
2274 2515 -2517 0
-2085 -2275 -2518 0
2085 2275 -2518 0
-2085 2275 2518 0
2085 -2275 2518 0
-2518 -2517 -2463 0
2518 2517 -2463 0
-2518 2517 2463 0
2518 -2517 2463 0
-2085 -2275 2519 0
-2085 -2517 2519 0
-2275 -2517 2519 0
2085 2275 -2519 0
2085 2517 -2519 0
2275 2517 -2519 0
-2086 -2276 -2520 0
2086 2276 -2520 0
-2086 2276 2520 0
2086 -2276 2520 0
-2520 -2519 -2464 0
2520 2519 -2464 0
-2520 2519 2464 0
2520 -2519 2464 0
-2086 -2276 2521 0
-2086 -2519 2521 0
-2276 -2519 2521 0
2086 2276 -2521 0
2086 2519 -2521 0
2276 2519 -2521 0
-2087 -2277 -2522 0
2087 2277 -2522 0
-2087 2277 2522 0
2087 -2277 2522 0
-2522 -2521 -2465 0
2522 2521 -2465 0
-2522 2521 2465 0
2522 -2521 2465 0
-2087 -2277 2523 0
-2087 -2521 2523 0
-2277 -2521 2523 0
2087 2277 -2523 0
2087 2521 -2523 0
2277 2521 -2523 0
-2088 -2278 -2524 0
2088 2278 -2524 0
-2088 2278 2524 0
2088 -2278 2524 0
-2524 -2523 -2466 0
2524 2523 -2466 0
-2524 2523 2466 0
2524 -2523 2466 0
-2088 -2278 2525 0
-2088 -2523 2525 0
-2278 -2523 2525 0
2088 2278 -2525 0
2088 2523 -2525 0
2278 2523 -2525 0
-2089 -2279 -2526 0
2089 2279 -2526 0
-2089 2279 2526 0
2089 -2279 2526 0
-2526 -2525 -2467 0
2526 2525 -2467 0
-2526 2525 2467 0
2526 -2525 2467 0
-2089 -2279 2527 0
-2089 -2525 2527 0
-2279 -2525 2527 0
2089 2279 -2527 0
2089 2525 -2527 0
2279 2525 -2527 0
-2090 -2280 -2528 0
2090 2280 -2528 0
-2090 2280 2528 0
2090 -2280 2528 0
-2528 -2527 -2468 0
2528 2527 -2468 0
-2528 2527 2468 0
2528 -2527 2468 0
-2090 -2280 2529 0
-2090 -2527 2529 0
-2280 -2527 2529 0
2090 2280 -2529 0
2090 2527 -2529 0
2280 2527 -2529 0
-2091 -2281 -2530 0
2091 2281 -2530 0
-2091 2281 2530 0
2091 -2281 2530 0
-2530 -2529 -2469 0
2530 2529 -2469 0
-2530 2529 2469 0
2530 -2529 2469 0
-2091 -2281 2531 0
-2091 -2529 2531 0
-2281 -2529 2531 0
2091 2281 -2531 0
2091 2529 -2531 0
2281 2529 -2531 0
-2092 -2282 -2532 0
2092 2282 -2532 0
-2092 2282 2532 0
2092 -2282 2532 0
-2532 -2531 -2470 0
2532 2531 -2470 0
-2532 2531 2470 0
2532 -2531 2470 0
2533 0
2534 0
2535 0
-2536 0
-2537 0
2538 0
2539 0
-2540 0
-2541 0
2542 0
2543 0
-2544 0
-2545 0
2546 0
2547 0
2548 0
2549 0
-2550 0
-2551 0
2552 0
-2553 0
-2554 0
-2555 0
-2556 0
-2557 0
2558 0
-2559 0
2560 0
-2561 0
2562 0
2563 0
-2564 0
-2439 -2533 -2565 0
2439 2533 -2565 0
-2439 2533 2565 0
2439 -2533 2565 0
-2439 -2533 2597 0
2439 -2597 0
2533 -2597 0
-2440 -2534 -2598 0
2440 2534 -2598 0
-2440 2534 2598 0
2440 -2534 2598 0
-2598 -2597 -2566 0
2598 2597 -2566 0
-2598 2597 2566 0
2598 -2597 2566 0
-2440 -2534 2599 0
-2440 -2597 2599 0
-2534 -2597 2599 0
2440 2534 -2599 0
2440 2597 -2599 0
2534 2597 -2599 0
-2441 -2535 -2600 0
2441 2535 -2600 0
-2441 2535 2600 0
2441 -2535 2600 0
-2600 -2599 -2567 0
2600 2599 -2567 0
-2600 2599 2567 0
2600 -2599 2567 0
-2441 -2535 2601 0
-2441 -2599 2601 0
-2535 -2599 2601 0
2441 2535 -2601 0
2441 2599 -2601 0
2535 2599 -2601 0
-2442 -2536 -2602 0
2442 2536 -2602 0
-2442 2536 2602 0
2442 -2536 2602 0
-2602 -2601 -2568 0
2602 2601 -2568 0
-2602 2601 2568 0
2602 -2601 2568 0
-2442 -2536 2603 0
-2442 -2601 2603 0
-2536 -2601 2603 0
2442 2536 -2603 0
2442 2601 -2603 0
2536 2601 -2603 0
-2443 -2537 -2604 0
2443 2537 -2604 0
-2443 2537 2604 0
2443 -2537 2604 0
-2604 -2603 -2569 0
2604 2603 -2569 0
-2604 2603 2569 0
2604 -2603 2569 0
-2443 -2537 2605 0
-2443 -2603 2605 0
-2537 -2603 2605 0
2443 2537 -2605 0
2443 2603 -2605 0
2537 2603 -2605 0
-2444 -2538 -2606 0
2444 2538 -2606 0
-2444 2538 2606 0
2444 -2538 2606 0
-2606 -2605 -2570 0
2606 2605 -2570 0
-2606 2605 2570 0
2606 -2605 2570 0
-2444 -2538 2607 0
-2444 -2605 2607 0
-2538 -2605 2607 0
2444 2538 -2607 0
2444 2605 -2607 0
2538 2605 -2607 0
-2445 -2539 -2608 0
2445 2539 -2608 0
-2445 2539 2608 0
2445 -2539 2608 0
-2608 -2607 -2571 0
2608 2607 -2571 0
-2608 2607 2571 0
2608 -2607 2571 0
-2445 -2539 2609 0
-2445 -2607 2609 0
-2539 -2607 2609 0
2445 2539 -2609 0
2445 2607 -2609 0
2539 2607 -2609 0
-2446 -2540 -2610 0
2446 2540 -2610 0
-2446 2540 2610 0
2446 -2540 2610 0
-2610 -2609 -2572 0
2610 2609 -2572 0
-2610 2609 2572 0
2610 -2609 2572 0
-2446 -2540 2611 0
-2446 -2609 2611 0
-2540 -2609 2611 0
2446 2540 -2611 0
2446 2609 -2611 0
2540 2609 -2611 0
-2447 -2541 -2612 0
2447 2541 -2612 0
-2447 2541 2612 0
2447 -2541 2612 0
-2612 -2611 -2573 0
2612 2611 -2573 0
-2612 2611 2573 0
2612 -2611 2573 0
-2447 -2541 2613 0
-2447 -2611 2613 0
-2541 -2611 2613 0
2447 2541 -2613 0
2447 2611 -2613 0
2541 2611 -2613 0
-2448 -2542 -2614 0
2448 2542 -2614 0
-2448 2542 2614 0
2448 -2542 2614 0
-2614 -2613 -2574 0
2614 2613 -2574 0
-2614 2613 2574 0
2614 -2613 2574 0
-2448 -2542 2615 0
-2448 -2613 2615 0
-2542 -2613 2615 0
2448 2542 -2615 0
2448 2613 -2615 0
2542 2613 -2615 0
-2449 -2543 -2616 0
2449 2543 -2616 0
-2449 2543 2616 0
2449 -2543 2616 0
-2616 -2615 -2575 0
2616 2615 -2575 0
-2616 2615 2575 0
2616 -2615 2575 0
-2449 -2543 2617 0
-2449 -2615 2617 0
-2543 -2615 2617 0
2449 2543 -2617 0
2449 2615 -2617 0
2543 2615 -2617 0
-2450 -2544 -2618 0
2450 2544 -2618 0
-2450 2544 2618 0
2450 -2544 2618 0
-2618 -2617 -2576 0
2618 2617 -2576 0
-2618 2617 2576 0
2618 -2617 2576 0
-2450 -2544 2619 0
-2450 -2617 2619 0
-2544 -2617 2619 0
2450 2544 -2619 0
2450 2617 -2619 0
2544 2617 -2619 0
-2451 -2545 -2620 0
2451 2545 -2620 0
-2451 2545 2620 0
2451 -2545 2620 0
-2620 -2619 -2577 0
2620 2619 -2577 0
-2620 2619 2577 0
2620 -2619 2577 0
-2451 -2545 2621 0
-2451 -2619 2621 0
-2545 -2619 2621 0
2451 2545 -2621 0
2451 2619 -2621 0
2545 2619 -2621 0
-2452 -2546 -2622 0
2452 2546 -2622 0
-2452 2546 2622 0
2452 -2546 2622 0
-2622 -2621 -2578 0
2622 2621 -2578 0
-2622 2621 2578 0
2622 -2621 2578 0
-2452 -2546 2623 0
-2452 -2621 2623 0
-2546 -2621 2623 0
2452 2546 -2623 0
2452 2621 -2623 0
2546 2621 -2623 0
-2453 -2547 -2624 0
2453 2547 -2624 0
-2453 2547 2624 0
2453 -2547 2624 0
-2624 -2623 -2579 0
2624 2623 -2579 0
-2624 2623 2579 0
2624 -2623 2579 0
-2453 -2547 2625 0
-2453 -2623 2625 0
-2547 -2623 2625 0
2453 2547 -2625 0
2453 2623 -2625 0
2547 2623 -2625 0
-2454 -2548 -2626 0
2454 2548 -2626 0
-2454 2548 2626 0
2454 -2548 2626 0
-2626 -2625 -2580 0
2626 2625 -2580 0
-2626 2625 2580 0
2626 -2625 2580 0
-2454 -2548 2627 0
-2454 -2625 2627 0
-2548 -2625 2627 0
2454 2548 -2627 0
2454 2625 -2627 0
2548 2625 -2627 0
-2455 -2549 -2628 0
2455 2549 -2628 0
-2455 2549 2628 0
2455 -2549 2628 0
-2628 -2627 -2581 0
2628 2627 -2581 0
-2628 2627 2581 0
2628 -2627 2581 0
-2455 -2549 2629 0
-2455 -2627 2629 0
-2549 -2627 2629 0
2455 2549 -2629 0
2455 2627 -2629 0
2549 2627 -2629 0
-2456 -2550 -2630 0
2456 2550 -2630 0
-2456 2550 2630 0
2456 -2550 2630 0
-2630 -2629 -2582 0
2630 2629 -2582 0
-2630 2629 2582 0
2630 -2629 2582 0
-2456 -2550 2631 0
-2456 -2629 2631 0
-2550 -2629 2631 0
2456 2550 -2631 0
2456 2629 -2631 0
2550 2629 -2631 0
-2457 -2551 -2632 0
2457 2551 -2632 0
-2457 2551 2632 0
2457 -2551 2632 0
-2632 -2631 -2583 0
2632 2631 -2583 0
-2632 2631 2583 0
2632 -2631 2583 0
-2457 -2551 2633 0
-2457 -2631 2633 0
-2551 -2631 2633 0
2457 2551 -2633 0
2457 2631 -2633 0
2551 2631 -2633 0
-2458 -2552 -2634 0
2458 2552 -2634 0
-2458 2552 2634 0
2458 -2552 2634 0
-2634 -2633 -2584 0
2634 2633 -2584 0
-2634 2633 2584 0
2634 -2633 2584 0
-2458 -2552 2635 0
-2458 -2633 2635 0
-2552 -2633 2635 0
2458 2552 -2635 0
2458 2633 -2635 0
2552 2633 -2635 0
-2459 -2553 -2636 0
2459 2553 -2636 0
-2459 2553 2636 0
2459 -2553 2636 0
-2636 -2635 -2585 0
2636 2635 -2585 0
-2636 2635 2585 0
2636 -2635 2585 0
-2459 -2553 2637 0
-2459 -2635 2637 0
-2553 -2635 2637 0
2459 2553 -2637 0
2459 2635 -2637 0
2553 2635 -2637 0
-2460 -2554 -2638 0
2460 2554 -2638 0
-2460 2554 2638 0
2460 -2554 2638 0
-2638 -2637 -2586 0
2638 2637 -2586 0
-2638 2637 2586 0
2638 -2637 2586 0
-2460 -2554 2639 0
-2460 -2637 2639 0
-2554 -2637 2639 0
2460 2554 -2639 0
2460 2637 -2639 0
2554 2637 -2639 0
-2461 -2555 -2640 0
2461 2555 -2640 0
-2461 2555 2640 0
2461 -2555 2640 0
-2640 -2639 -2587 0
2640 2639 -2587 0
-2640 2639 2587 0
2640 -2639 2587 0
-2461 -2555 2641 0
-2461 -2639 2641 0
-2555 -2639 2641 0
2461 2555 -2641 0
2461 2639 -2641 0
2555 2639 -2641 0
-2462 -2556 -2642 0
2462 2556 -2642 0
-2462 2556 2642 0
2462 -2556 2642 0
-2642 -2641 -2588 0
2642 2641 -2588 0
-2642 2641 2588 0
2642 -2641 2588 0
-2462 -2556 2643 0
-2462 -2641 2643 0
-2556 -2641 2643 0
2462 2556 -2643 0
2462 2641 -2643 0
2556 2641 -2643 0
-2463 -2557 -2644 0
2463 2557 -2644 0
-2463 2557 2644 0
2463 -2557 2644 0
-2644 -2643 -2589 0
2644 2643 -2589 0
-2644 2643 2589 0
2644 -2643 2589 0
-2463 -2557 2645 0
-2463 -2643 2645 0
-2557 -2643 2645 0
2463 2557 -2645 0
2463 2643 -2645 0
2557 2643 -2645 0
-2464 -2558 -2646 0
2464 2558 -2646 0
-2464 2558 2646 0
2464 -2558 2646 0
-2646 -2645 -2590 0
2646 2645 -2590 0
-2646 2645 2590 0
2646 -2645 2590 0
-2464 -2558 2647 0
-2464 -2645 2647 0
-2558 -2645 2647 0
2464 2558 -2647 0
2464 2645 -2647 0
2558 2645 -2647 0
-2465 -2559 -2648 0
2465 2559 -2648 0
-2465 2559 2648 0
2465 -2559 2648 0
-2648 -2647 -2591 0
2648 2647 -2591 0
-2648 2647 2591 0
2648 -2647 2591 0
-2465 -2559 2649 0
-2465 -2647 2649 0
-2559 -2647 2649 0
2465 2559 -2649 0
2465 2647 -2649 0
2559 2647 -2649 0
-2466 -2560 -2650 0
2466 2560 -2650 0
-2466 2560 2650 0
2466 -2560 2650 0
-2650 -2649 -2592 0
2650 2649 -2592 0
-2650 2649 2592 0
2650 -2649 2592 0
-2466 -2560 2651 0
-2466 -2649 2651 0
-2560 -2649 2651 0
2466 2560 -2651 0
2466 2649 -2651 0
2560 2649 -2651 0
-2467 -2561 -2652 0
2467 2561 -2652 0
-2467 2561 2652 0
2467 -2561 2652 0
-2652 -2651 -2593 0
2652 2651 -2593 0
-2652 2651 2593 0
2652 -2651 2593 0
-2467 -2561 2653 0
-2467 -2651 2653 0
-2561 -2651 2653 0
2467 2561 -2653 0
2467 2651 -2653 0
2561 2651 -2653 0
-2468 -2562 -2654 0
2468 2562 -2654 0
-2468 2562 2654 0
2468 -2562 2654 0
-2654 -2653 -2594 0
2654 2653 -2594 0
-2654 2653 2594 0
2654 -2653 2594 0
-2468 -2562 2655 0
-2468 -2653 2655 0
-2562 -2653 2655 0
2468 2562 -2655 0
2468 2653 -2655 0
2562 2653 -2655 0
-2469 -2563 -2656 0
2469 2563 -2656 0
-2469 2563 2656 0
2469 -2563 2656 0
-2656 -2655 -2595 0
2656 2655 -2595 0
-2656 2655 2595 0
2656 -2655 2595 0
-2469 -2563 2657 0
-2469 -2655 2657 0
-2563 -2655 2657 0
2469 2563 -2657 0
2469 2655 -2657 0
2563 2655 -2657 0
-2470 -2564 -2658 0
2470 2564 -2658 0
-2470 2564 2658 0
2470 -2564 2658 0
-2658 -2657 -2596 0
2658 2657 -2596 0
-2658 2657 2596 0
2658 -2657 2596 0
2659 0
-2660 0
2661 0
-2662 0
-2663 0
-2664 0
-2665 0
2666 0
-2667 0
2668 0
2669 0
2670 0
-2671 0
2672 0
-2673 0
2674 0
2675 0
2676 0
2677 0
-2678 0
-2679 0
2680 0
2681 0
-2682 0
2683 0
2684 0
-2685 0
2686 0
2687 0
2688 0
-2689 0
2690 0
-1557 -2659 -2691 0
1557 2659 -2691 0
-1557 2659 2691 0
1557 -2659 2691 0
-1557 -2659 2723 0
1557 -2723 0
2659 -2723 0
-1558 -2660 -2724 0
1558 2660 -2724 0
-1558 2660 2724 0
1558 -2660 2724 0
-2724 -2723 -2692 0
2724 2723 -2692 0
-2724 2723 2692 0
2724 -2723 2692 0
-1558 -2660 2725 0
-1558 -2723 2725 0
-2660 -2723 2725 0
1558 2660 -2725 0
1558 2723 -2725 0
2660 2723 -2725 0
-1559 -2661 -2726 0
1559 2661 -2726 0
-1559 2661 2726 0
1559 -2661 2726 0
-2726 -2725 -2693 0
2726 2725 -2693 0
-2726 2725 2693 0
2726 -2725 2693 0
-1559 -2661 2727 0
-1559 -2725 2727 0
-2661 -2725 2727 0
1559 2661 -2727 0
1559 2725 -2727 0
2661 2725 -2727 0
-1560 -2662 -2728 0
1560 2662 -2728 0
-1560 2662 2728 0
1560 -2662 2728 0
-2728 -2727 -2694 0
2728 2727 -2694 0
-2728 2727 2694 0
2728 -2727 2694 0
-1560 -2662 2729 0
-1560 -2727 2729 0
-2662 -2727 2729 0
1560 2662 -2729 0
1560 2727 -2729 0
2662 2727 -2729 0
-1561 -2663 -2730 0
1561 2663 -2730 0
-1561 2663 2730 0
1561 -2663 2730 0
-2730 -2729 -2695 0
2730 2729 -2695 0
-2730 2729 2695 0
2730 -2729 2695 0
-1561 -2663 2731 0
-1561 -2729 2731 0
-2663 -2729 2731 0
1561 2663 -2731 0
1561 2729 -2731 0
2663 2729 -2731 0
-1562 -2664 -2732 0
1562 2664 -2732 0
-1562 2664 2732 0
1562 -2664 2732 0
-2732 -2731 -2696 0
2732 2731 -2696 0
-2732 2731 2696 0
2732 -2731 2696 0
-1562 -2664 2733 0
-1562 -2731 2733 0
-2664 -2731 2733 0
1562 2664 -2733 0
1562 2731 -2733 0
2664 2731 -2733 0
-1563 -2665 -2734 0
1563 2665 -2734 0
-1563 2665 2734 0
1563 -2665 2734 0
-2734 -2733 -2697 0
2734 2733 -2697 0
-2734 2733 2697 0
2734 -2733 2697 0
-1563 -2665 2735 0
-1563 -2733 2735 0
-2665 -2733 2735 0
1563 2665 -2735 0
1563 2733 -2735 0
2665 2733 -2735 0
-1564 -2666 -2736 0
1564 2666 -2736 0
-1564 2666 2736 0
1564 -2666 2736 0
-2736 -2735 -2698 0
2736 2735 -2698 0
-2736 2735 2698 0
2736 -2735 2698 0
-1564 -2666 2737 0
-1564 -2735 2737 0
-2666 -2735 2737 0
1564 2666 -2737 0
1564 2735 -2737 0
2666 2735 -2737 0
-1565 -2667 -2738 0
1565 2667 -2738 0
-1565 2667 2738 0
1565 -2667 2738 0
-2738 -2737 -2699 0
2738 2737 -2699 0
-2738 2737 2699 0
2738 -2737 2699 0
-1565 -2667 2739 0
-1565 -2737 2739 0
-2667 -2737 2739 0
1565 2667 -2739 0
1565 2737 -2739 0
2667 2737 -2739 0
-1566 -2668 -2740 0
1566 2668 -2740 0
-1566 2668 2740 0
1566 -2668 2740 0
-2740 -2739 -2700 0
2740 2739 -2700 0
-2740 2739 2700 0
2740 -2739 2700 0
-1566 -2668 2741 0
-1566 -2739 2741 0
-2668 -2739 2741 0
1566 2668 -2741 0
1566 2739 -2741 0
2668 2739 -2741 0
-1567 -2669 -2742 0
1567 2669 -2742 0
-1567 2669 2742 0
1567 -2669 2742 0
-2742 -2741 -2701 0
2742 2741 -2701 0
-2742 2741 2701 0
2742 -2741 2701 0
-1567 -2669 2743 0
-1567 -2741 2743 0
-2669 -2741 2743 0
1567 2669 -2743 0
1567 2741 -2743 0
2669 2741 -2743 0
-1568 -2670 -2744 0
1568 2670 -2744 0
-1568 2670 2744 0
1568 -2670 2744 0
-2744 -2743 -2702 0
2744 2743 -2702 0
-2744 2743 2702 0
2744 -2743 2702 0
-1568 -2670 2745 0
-1568 -2743 2745 0
-2670 -2743 2745 0
1568 2670 -2745 0
1568 2743 -2745 0
2670 2743 -2745 0
-1569 -2671 -2746 0
1569 2671 -2746 0
-1569 2671 2746 0
1569 -2671 2746 0
-2746 -2745 -2703 0
2746 2745 -2703 0
-2746 2745 2703 0
2746 -2745 2703 0
-1569 -2671 2747 0
-1569 -2745 2747 0
-2671 -2745 2747 0
1569 2671 -2747 0
1569 2745 -2747 0
2671 2745 -2747 0
-1570 -2672 -2748 0
1570 2672 -2748 0
-1570 2672 2748 0
1570 -2672 2748 0
-2748 -2747 -2704 0
2748 2747 -2704 0
-2748 2747 2704 0
2748 -2747 2704 0
-1570 -2672 2749 0
-1570 -2747 2749 0
-2672 -2747 2749 0
1570 2672 -2749 0
1570 2747 -2749 0
2672 2747 -2749 0
-1571 -2673 -2750 0
1571 2673 -2750 0
-1571 2673 2750 0
1571 -2673 2750 0
-2750 -2749 -2705 0
2750 2749 -2705 0
-2750 2749 2705 0
2750 -2749 2705 0
-1571 -2673 2751 0
-1571 -2749 2751 0
-2673 -2749 2751 0
1571 2673 -2751 0
1571 2749 -2751 0
2673 2749 -2751 0
-1572 -2674 -2752 0
1572 2674 -2752 0
-1572 2674 2752 0
1572 -2674 2752 0
-2752 -2751 -2706 0
2752 2751 -2706 0
-2752 2751 2706 0
2752 -2751 2706 0
-1572 -2674 2753 0
-1572 -2751 2753 0
-2674 -2751 2753 0
1572 2674 -2753 0
1572 2751 -2753 0
2674 2751 -2753 0
-1573 -2675 -2754 0
1573 2675 -2754 0
-1573 2675 2754 0
1573 -2675 2754 0
-2754 -2753 -2707 0
2754 2753 -2707 0
-2754 2753 2707 0
2754 -2753 2707 0
-1573 -2675 2755 0
-1573 -2753 2755 0
-2675 -2753 2755 0
1573 2675 -2755 0
1573 2753 -2755 0
2675 2753 -2755 0
-1574 -2676 -2756 0
1574 2676 -2756 0
-1574 2676 2756 0
1574 -2676 2756 0
-2756 -2755 -2708 0
2756 2755 -2708 0
-2756 2755 2708 0
2756 -2755 2708 0
-1574 -2676 2757 0
-1574 -2755 2757 0
-2676 -2755 2757 0
1574 2676 -2757 0
1574 2755 -2757 0
2676 2755 -2757 0
-1575 -2677 -2758 0
1575 2677 -2758 0
-1575 2677 2758 0
1575 -2677 2758 0
-2758 -2757 -2709 0
2758 2757 -2709 0
-2758 2757 2709 0
2758 -2757 2709 0
-1575 -2677 2759 0
-1575 -2757 2759 0
-2677 -2757 2759 0
1575 2677 -2759 0
1575 2757 -2759 0
2677 2757 -2759 0
-1576 -2678 -2760 0
1576 2678 -2760 0
-1576 2678 2760 0
1576 -2678 2760 0
-2760 -2759 -2710 0
2760 2759 -2710 0
-2760 2759 2710 0
2760 -2759 2710 0
-1576 -2678 2761 0
-1576 -2759 2761 0
-2678 -2759 2761 0
1576 2678 -2761 0
1576 2759 -2761 0
2678 2759 -2761 0
-1577 -2679 -2762 0
1577 2679 -2762 0
-1577 2679 2762 0
1577 -2679 2762 0
-2762 -2761 -2711 0
2762 2761 -2711 0
-2762 2761 2711 0
2762 -2761 2711 0
-1577 -2679 2763 0
-1577 -2761 2763 0
-2679 -2761 2763 0
1577 2679 -2763 0
1577 2761 -2763 0
2679 2761 -2763 0
-1578 -2680 -2764 0
1578 2680 -2764 0
-1578 2680 2764 0
1578 -2680 2764 0
-2764 -2763 -2712 0
2764 2763 -2712 0
-2764 2763 2712 0
2764 -2763 2712 0
-1578 -2680 2765 0
-1578 -2763 2765 0
-2680 -2763 2765 0
1578 2680 -2765 0
1578 2763 -2765 0
2680 2763 -2765 0
-1579 -2681 -2766 0
1579 2681 -2766 0
-1579 2681 2766 0
1579 -2681 2766 0
-2766 -2765 -2713 0
2766 2765 -2713 0
-2766 2765 2713 0
2766 -2765 2713 0
-1579 -2681 2767 0
-1579 -2765 2767 0
-2681 -2765 2767 0
1579 2681 -2767 0
1579 2765 -2767 0
2681 2765 -2767 0
-1580 -2682 -2768 0
1580 2682 -2768 0
-1580 2682 2768 0
1580 -2682 2768 0
-2768 -2767 -2714 0
2768 2767 -2714 0
-2768 2767 2714 0
2768 -2767 2714 0
-1580 -2682 2769 0
-1580 -2767 2769 0
-2682 -2767 2769 0
1580 2682 -2769 0
1580 2767 -2769 0
2682 2767 -2769 0
-1581 -2683 -2770 0
1581 2683 -2770 0
-1581 2683 2770 0
1581 -2683 2770 0
-2770 -2769 -2715 0
2770 2769 -2715 0
-2770 2769 2715 0
2770 -2769 2715 0
-1581 -2683 2771 0
-1581 -2769 2771 0
-2683 -2769 2771 0
1581 2683 -2771 0
1581 2769 -2771 0
2683 2769 -2771 0
-1582 -2684 -2772 0
1582 2684 -2772 0
-1582 2684 2772 0
1582 -2684 2772 0
-2772 -2771 -2716 0
2772 2771 -2716 0
-2772 2771 2716 0
2772 -2771 2716 0
-1582 -2684 2773 0
-1582 -2771 2773 0
-2684 -2771 2773 0
1582 2684 -2773 0
1582 2771 -2773 0
2684 2771 -2773 0
-1583 -2685 -2774 0
1583 2685 -2774 0
-1583 2685 2774 0
1583 -2685 2774 0
-2774 -2773 -2717 0
2774 2773 -2717 0
-2774 2773 2717 0
2774 -2773 2717 0
-1583 -2685 2775 0
-1583 -2773 2775 0
-2685 -2773 2775 0
1583 2685 -2775 0
1583 2773 -2775 0
2685 2773 -2775 0
-1584 -2686 -2776 0
1584 2686 -2776 0
-1584 2686 2776 0
1584 -2686 2776 0
-2776 -2775 -2718 0
2776 2775 -2718 0
-2776 2775 2718 0
2776 -2775 2718 0
-1584 -2686 2777 0
-1584 -2775 2777 0
-2686 -2775 2777 0
1584 2686 -2777 0
1584 2775 -2777 0
2686 2775 -2777 0
-1585 -2687 -2778 0
1585 2687 -2778 0
-1585 2687 2778 0
1585 -2687 2778 0
-2778 -2777 -2719 0
2778 2777 -2719 0
-2778 2777 2719 0
2778 -2777 2719 0
-1585 -2687 2779 0
-1585 -2777 2779 0
-2687 -2777 2779 0
1585 2687 -2779 0
1585 2777 -2779 0
2687 2777 -2779 0
-1586 -2688 -2780 0
1586 2688 -2780 0
-1586 2688 2780 0
1586 -2688 2780 0
-2780 -2779 -2720 0
2780 2779 -2720 0
-2780 2779 2720 0
2780 -2779 2720 0
-1586 -2688 2781 0
-1586 -2779 2781 0
-2688 -2779 2781 0
1586 2688 -2781 0
1586 2779 -2781 0
2688 2779 -2781 0
-1587 -2689 -2782 0
1587 2689 -2782 0
-1587 2689 2782 0
1587 -2689 2782 0
-2782 -2781 -2721 0
2782 2781 -2721 0
-2782 2781 2721 0
2782 -2781 2721 0
-1587 -2689 2783 0
-1587 -2781 2783 0
-2689 -2781 2783 0
1587 2689 -2783 0
1587 2781 -2783 0
2689 2781 -2783 0
-1588 -2690 -2784 0
1588 2690 -2784 0
-1588 2690 2784 0
1588 -2690 2784 0
-2784 -2783 -2722 0
2784 2783 -2722 0
-2784 2783 2722 0
2784 -2783 2722 0
-2785 0
2786 0
-2787 0
-2788 0
2789 0
2790 0
2791 0
-2792 0
2793 0
2794 0
-2795 0
-2796 0
2797 0
2798 0
2799 0
2800 0
-2801 0
2802 0
2803 0
2804 0
-2805 0
2806 0
2807 0
-2808 0
-2809 0
-2810 0
2811 0
2812 0
2813 0
2814 0
-2815 0
-2816 0
-513 -2785 -2817 0
513 2785 -2817 0
-513 2785 2817 0
513 -2785 2817 0
-513 -2785 2849 0
513 -2849 0
2785 -2849 0
-514 -2786 -2850 0
514 2786 -2850 0
-514 2786 2850 0
514 -2786 2850 0
-2850 -2849 -2818 0
2850 2849 -2818 0
-2850 2849 2818 0
2850 -2849 2818 0
-514 -2786 2851 0
-514 -2849 2851 0
-2786 -2849 2851 0
514 2786 -2851 0
514 2849 -2851 0
2786 2849 -2851 0
-515 -2787 -2852 0
515 2787 -2852 0
-515 2787 2852 0
515 -2787 2852 0
-2852 -2851 -2819 0
2852 2851 -2819 0
-2852 2851 2819 0
2852 -2851 2819 0
-515 -2787 2853 0
-515 -2851 2853 0
-2787 -2851 2853 0
515 2787 -2853 0
515 2851 -2853 0
2787 2851 -2853 0
-516 -2788 -2854 0
516 2788 -2854 0
-516 2788 2854 0
516 -2788 2854 0
-2854 -2853 -2820 0
2854 2853 -2820 0
-2854 2853 2820 0
2854 -2853 2820 0
-516 -2788 2855 0
-516 -2853 2855 0
-2788 -2853 2855 0
516 2788 -2855 0
516 2853 -2855 0
2788 2853 -2855 0
-517 -2789 -2856 0
517 2789 -2856 0
-517 2789 2856 0
517 -2789 2856 0
-2856 -2855 -2821 0
2856 2855 -2821 0
-2856 2855 2821 0
2856 -2855 2821 0
-517 -2789 2857 0
-517 -2855 2857 0
-2789 -2855 2857 0
517 2789 -2857 0
517 2855 -2857 0
2789 2855 -2857 0
-518 -2790 -2858 0
518 2790 -2858 0
-518 2790 2858 0
518 -2790 2858 0
-2858 -2857 -2822 0
2858 2857 -2822 0
-2858 2857 2822 0
2858 -2857 2822 0
-518 -2790 2859 0
-518 -2857 2859 0
-2790 -2857 2859 0
518 2790 -2859 0
518 2857 -2859 0
2790 2857 -2859 0
-519 -2791 -2860 0
519 2791 -2860 0
-519 2791 2860 0
519 -2791 2860 0
-2860 -2859 -2823 0
2860 2859 -2823 0
-2860 2859 2823 0
2860 -2859 2823 0
-519 -2791 2861 0
-519 -2859 2861 0
-2791 -2859 2861 0
519 2791 -2861 0
519 2859 -2861 0
2791 2859 -2861 0
-520 -2792 -2862 0
520 2792 -2862 0
-520 2792 2862 0
520 -2792 2862 0
-2862 -2861 -2824 0
2862 2861 -2824 0
-2862 2861 2824 0
2862 -2861 2824 0
-520 -2792 2863 0
-520 -2861 2863 0
-2792 -2861 2863 0
520 2792 -2863 0
520 2861 -2863 0
2792 2861 -2863 0
-521 -2793 -2864 0
521 2793 -2864 0
-521 2793 2864 0
521 -2793 2864 0
-2864 -2863 -2825 0
2864 2863 -2825 0
-2864 2863 2825 0
2864 -2863 2825 0
-521 -2793 2865 0
-521 -2863 2865 0
-2793 -2863 2865 0
521 2793 -2865 0
521 2863 -2865 0
2793 2863 -2865 0
-522 -2794 -2866 0
522 2794 -2866 0
-522 2794 2866 0
522 -2794 2866 0
-2866 -2865 -2826 0
2866 2865 -2826 0
-2866 2865 2826 0
2866 -2865 2826 0
-522 -2794 2867 0
-522 -2865 2867 0
-2794 -2865 2867 0
522 2794 -2867 0
522 2865 -2867 0
2794 2865 -2867 0
-523 -2795 -2868 0
523 2795 -2868 0
-523 2795 2868 0
523 -2795 2868 0
-2868 -2867 -2827 0
2868 2867 -2827 0
-2868 2867 2827 0
2868 -2867 2827 0
-523 -2795 2869 0
-523 -2867 2869 0
-2795 -2867 2869 0
523 2795 -2869 0
523 2867 -2869 0
2795 2867 -2869 0
-524 -2796 -2870 0
524 2796 -2870 0
-524 2796 2870 0
524 -2796 2870 0
-2870 -2869 -2828 0
2870 2869 -2828 0
-2870 2869 2828 0
2870 -2869 2828 0
-524 -2796 2871 0
-524 -2869 2871 0
-2796 -2869 2871 0
524 2796 -2871 0
524 2869 -2871 0
2796 2869 -2871 0
-525 -2797 -2872 0
525 2797 -2872 0
-525 2797 2872 0
525 -2797 2872 0
-2872 -2871 -2829 0
2872 2871 -2829 0
-2872 2871 2829 0
2872 -2871 2829 0
-525 -2797 2873 0
-525 -2871 2873 0
-2797 -2871 2873 0
525 2797 -2873 0
525 2871 -2873 0
2797 2871 -2873 0
-526 -2798 -2874 0
526 2798 -2874 0
-526 2798 2874 0
526 -2798 2874 0
-2874 -2873 -2830 0
2874 2873 -2830 0
-2874 2873 2830 0
2874 -2873 2830 0
-526 -2798 2875 0
-526 -2873 2875 0
-2798 -2873 2875 0
526 2798 -2875 0
526 2873 -2875 0
2798 2873 -2875 0
-527 -2799 -2876 0
527 2799 -2876 0
-527 2799 2876 0
527 -2799 2876 0
-2876 -2875 -2831 0
2876 2875 -2831 0
-2876 2875 2831 0
2876 -2875 2831 0
-527 -2799 2877 0
-527 -2875 2877 0
-2799 -2875 2877 0
527 2799 -2877 0
527 2875 -2877 0
2799 2875 -2877 0
-528 -2800 -2878 0
528 2800 -2878 0
-528 2800 2878 0
528 -2800 2878 0
-2878 -2877 -2832 0
2878 2877 -2832 0
-2878 2877 2832 0
2878 -2877 2832 0
-528 -2800 2879 0
-528 -2877 2879 0
-2800 -2877 2879 0
528 2800 -2879 0
528 2877 -2879 0
2800 2877 -2879 0
-529 -2801 -2880 0
529 2801 -2880 0
-529 2801 2880 0
529 -2801 2880 0
-2880 -2879 -2833 0
2880 2879 -2833 0
-2880 2879 2833 0
2880 -2879 2833 0
-529 -2801 2881 0
-529 -2879 2881 0
-2801 -2879 2881 0
529 2801 -2881 0
529 2879 -2881 0
2801 2879 -2881 0
-530 -2802 -2882 0
530 2802 -2882 0
-530 2802 2882 0
530 -2802 2882 0
-2882 -2881 -2834 0
2882 2881 -2834 0
-2882 2881 2834 0
2882 -2881 2834 0
-530 -2802 2883 0
-530 -2881 2883 0
-2802 -2881 2883 0
530 2802 -2883 0
530 2881 -2883 0
2802 2881 -2883 0
-531 -2803 -2884 0
531 2803 -2884 0
-531 2803 2884 0
531 -2803 2884 0
-2884 -2883 -2835 0
2884 2883 -2835 0
-2884 2883 2835 0
2884 -2883 2835 0
-531 -2803 2885 0
-531 -2883 2885 0
-2803 -2883 2885 0
531 2803 -2885 0
531 2883 -2885 0
2803 2883 -2885 0
-532 -2804 -2886 0
532 2804 -2886 0
-532 2804 2886 0
532 -2804 2886 0
-2886 -2885 -2836 0
2886 2885 -2836 0
-2886 2885 2836 0
2886 -2885 2836 0
-532 -2804 2887 0
-532 -2885 2887 0
-2804 -2885 2887 0
532 2804 -2887 0
532 2885 -2887 0
2804 2885 -2887 0
-533 -2805 -2888 0
533 2805 -2888 0
-533 2805 2888 0
533 -2805 2888 0
-2888 -2887 -2837 0
2888 2887 -2837 0
-2888 2887 2837 0
2888 -2887 2837 0
-533 -2805 2889 0
-533 -2887 2889 0
-2805 -2887 2889 0
533 2805 -2889 0
533 2887 -2889 0
2805 2887 -2889 0
-534 -2806 -2890 0
534 2806 -2890 0
-534 2806 2890 0
534 -2806 2890 0
-2890 -2889 -2838 0
2890 2889 -2838 0
-2890 2889 2838 0
2890 -2889 2838 0
-534 -2806 2891 0
-534 -2889 2891 0
-2806 -2889 2891 0
534 2806 -2891 0
534 2889 -2891 0
2806 2889 -2891 0
-535 -2807 -2892 0
535 2807 -2892 0
-535 2807 2892 0
535 -2807 2892 0
-2892 -2891 -2839 0
2892 2891 -2839 0
-2892 2891 2839 0
2892 -2891 2839 0
-535 -2807 2893 0
-535 -2891 2893 0
-2807 -2891 2893 0
535 2807 -2893 0
535 2891 -2893 0
2807 2891 -2893 0
-536 -2808 -2894 0
536 2808 -2894 0
-536 2808 2894 0
536 -2808 2894 0
-2894 -2893 -2840 0
2894 2893 -2840 0
-2894 2893 2840 0
2894 -2893 2840 0
-536 -2808 2895 0
-536 -2893 2895 0
-2808 -2893 2895 0
536 2808 -2895 0
536 2893 -2895 0
2808 2893 -2895 0
-537 -2809 -2896 0
537 2809 -2896 0
-537 2809 2896 0
537 -2809 2896 0
-2896 -2895 -2841 0
2896 2895 -2841 0
-2896 2895 2841 0
2896 -2895 2841 0
-537 -2809 2897 0
-537 -2895 2897 0
-2809 -2895 2897 0
537 2809 -2897 0
537 2895 -2897 0
2809 2895 -2897 0
-538 -2810 -2898 0
538 2810 -2898 0
-538 2810 2898 0
538 -2810 2898 0
-2898 -2897 -2842 0
2898 2897 -2842 0
-2898 2897 2842 0
2898 -2897 2842 0
-538 -2810 2899 0
-538 -2897 2899 0
-2810 -2897 2899 0
538 2810 -2899 0
538 2897 -2899 0
2810 2897 -2899 0
-539 -2811 -2900 0
539 2811 -2900 0
-539 2811 2900 0
539 -2811 2900 0
-2900 -2899 -2843 0
2900 2899 -2843 0
-2900 2899 2843 0
2900 -2899 2843 0
-539 -2811 2901 0
-539 -2899 2901 0
-2811 -2899 2901 0
539 2811 -2901 0
539 2899 -2901 0
2811 2899 -2901 0
-540 -2812 -2902 0
540 2812 -2902 0
-540 2812 2902 0
540 -2812 2902 0
-2902 -2901 -2844 0
2902 2901 -2844 0
-2902 2901 2844 0
2902 -2901 2844 0
-540 -2812 2903 0
-540 -2901 2903 0
-2812 -2901 2903 0
540 2812 -2903 0
540 2901 -2903 0
2812 2901 -2903 0
-541 -2813 -2904 0
541 2813 -2904 0
-541 2813 2904 0
541 -2813 2904 0
-2904 -2903 -2845 0
2904 2903 -2845 0
-2904 2903 2845 0
2904 -2903 2845 0
-541 -2813 2905 0
-541 -2903 2905 0
-2813 -2903 2905 0
541 2813 -2905 0
541 2903 -2905 0
2813 2903 -2905 0
-542 -2814 -2906 0
542 2814 -2906 0
-542 2814 2906 0
542 -2814 2906 0
-2906 -2905 -2846 0
2906 2905 -2846 0
-2906 2905 2846 0
2906 -2905 2846 0
-542 -2814 2907 0
-542 -2905 2907 0
-2814 -2905 2907 0
542 2814 -2907 0
542 2905 -2907 0
2814 2905 -2907 0
-543 -2815 -2908 0
543 2815 -2908 0
-543 2815 2908 0
543 -2815 2908 0
-2908 -2907 -2847 0
2908 2907 -2847 0
-2908 2907 2847 0
2908 -2907 2847 0
-543 -2815 2909 0
-543 -2907 2909 0
-2815 -2907 2909 0
543 2815 -2909 0
543 2907 -2909 0
2815 2907 -2909 0
-544 -2816 -2910 0
544 2816 -2910 0
-544 2816 2910 0
544 -2816 2910 0
-2910 -2909 -2848 0
2910 2909 -2848 0
-2910 2909 2848 0
2910 -2909 2848 0
-2911 0
2912 0
-2913 0
2914 0
2915 0
2916 0
-2917 0
-2918 0
2919 0
-2920 0
2921 0
-2922 0
2923 0
2924 0
2925 0
2926 0
2927 0
2928 0
2929 0
2930 0
-2931 0
-2932 0
2933 0
-2934 0
2935 0
-2936 0
2937 0
-2938 0
-2939 0
2940 0
-2941 0
2942 0
-545 -2911 -2943 0
545 2911 -2943 0
-545 2911 2943 0
545 -2911 2943 0
-545 -2911 2975 0
545 -2975 0
2911 -2975 0
-546 -2912 -2976 0
546 2912 -2976 0
-546 2912 2976 0
546 -2912 2976 0
-2976 -2975 -2944 0
2976 2975 -2944 0
-2976 2975 2944 0
2976 -2975 2944 0
-546 -2912 2977 0
-546 -2975 2977 0
-2912 -2975 2977 0
546 2912 -2977 0
546 2975 -2977 0
2912 2975 -2977 0
-547 -2913 -2978 0
547 2913 -2978 0
-547 2913 2978 0
547 -2913 2978 0
-2978 -2977 -2945 0
2978 2977 -2945 0
-2978 2977 2945 0
2978 -2977 2945 0
-547 -2913 2979 0
-547 -2977 2979 0
-2913 -2977 2979 0
547 2913 -2979 0
547 2977 -2979 0
2913 2977 -2979 0
-548 -2914 -2980 0
548 2914 -2980 0
-548 2914 2980 0
548 -2914 2980 0
-2980 -2979 -2946 0
2980 2979 -2946 0
-2980 2979 2946 0
2980 -2979 2946 0
-548 -2914 2981 0
-548 -2979 2981 0
-2914 -2979 2981 0
548 2914 -2981 0
548 2979 -2981 0
2914 2979 -2981 0
-549 -2915 -2982 0
549 2915 -2982 0
-549 2915 2982 0
549 -2915 2982 0
-2982 -2981 -2947 0
2982 2981 -2947 0
-2982 2981 2947 0
2982 -2981 2947 0
-549 -2915 2983 0
-549 -2981 2983 0
-2915 -2981 2983 0
549 2915 -2983 0
549 2981 -2983 0
2915 2981 -2983 0
-550 -2916 -2984 0
550 2916 -2984 0
-550 2916 2984 0
550 -2916 2984 0
-2984 -2983 -2948 0
2984 2983 -2948 0
-2984 2983 2948 0
2984 -2983 2948 0
-550 -2916 2985 0
-550 -2983 2985 0
-2916 -2983 2985 0
550 2916 -2985 0
550 2983 -2985 0
2916 2983 -2985 0
-551 -2917 -2986 0
551 2917 -2986 0
-551 2917 2986 0
551 -2917 2986 0
-2986 -2985 -2949 0
2986 2985 -2949 0
-2986 2985 2949 0
2986 -2985 2949 0
-551 -2917 2987 0
-551 -2985 2987 0
-2917 -2985 2987 0
551 2917 -2987 0
551 2985 -2987 0
2917 2985 -2987 0
-552 -2918 -2988 0
552 2918 -2988 0
-552 2918 2988 0
552 -2918 2988 0
-2988 -2987 -2950 0
2988 2987 -2950 0
-2988 2987 2950 0
2988 -2987 2950 0
-552 -2918 2989 0
-552 -2987 2989 0
-2918 -2987 2989 0
552 2918 -2989 0
552 2987 -2989 0
2918 2987 -2989 0
-553 -2919 -2990 0
553 2919 -2990 0
-553 2919 2990 0
553 -2919 2990 0
-2990 -2989 -2951 0
2990 2989 -2951 0
-2990 2989 2951 0
2990 -2989 2951 0
-553 -2919 2991 0
-553 -2989 2991 0
-2919 -2989 2991 0
553 2919 -2991 0
553 2989 -2991 0
2919 2989 -2991 0
-554 -2920 -2992 0
554 2920 -2992 0
-554 2920 2992 0
554 -2920 2992 0
-2992 -2991 -2952 0
2992 2991 -2952 0
-2992 2991 2952 0
2992 -2991 2952 0
-554 -2920 2993 0
-554 -2991 2993 0
-2920 -2991 2993 0
554 2920 -2993 0
554 2991 -2993 0
2920 2991 -2993 0
-555 -2921 -2994 0
555 2921 -2994 0
-555 2921 2994 0
555 -2921 2994 0
-2994 -2993 -2953 0
2994 2993 -2953 0
-2994 2993 2953 0
2994 -2993 2953 0
-555 -2921 2995 0
-555 -2993 2995 0
-2921 -2993 2995 0
555 2921 -2995 0
555 2993 -2995 0
2921 2993 -2995 0
-556 -2922 -2996 0
556 2922 -2996 0
-556 2922 2996 0
556 -2922 2996 0
-2996 -2995 -2954 0
2996 2995 -2954 0
-2996 2995 2954 0
2996 -2995 2954 0
-556 -2922 2997 0
-556 -2995 2997 0
-2922 -2995 2997 0
556 2922 -2997 0
556 2995 -2997 0
2922 2995 -2997 0
-557 -2923 -2998 0
557 2923 -2998 0
-557 2923 2998 0
557 -2923 2998 0
-2998 -2997 -2955 0
2998 2997 -2955 0
-2998 2997 2955 0
2998 -2997 2955 0
-557 -2923 2999 0
-557 -2997 2999 0
-2923 -2997 2999 0
557 2923 -2999 0
557 2997 -2999 0
2923 2997 -2999 0
-558 -2924 -3000 0
558 2924 -3000 0
-558 2924 3000 0
558 -2924 3000 0
-3000 -2999 -2956 0
3000 2999 -2956 0
-3000 2999 2956 0
3000 -2999 2956 0
-558 -2924 3001 0
-558 -2999 3001 0
-2924 -2999 3001 0
558 2924 -3001 0
558 2999 -3001 0
2924 2999 -3001 0
-559 -2925 -3002 0
559 2925 -3002 0
-559 2925 3002 0
559 -2925 3002 0
-3002 -3001 -2957 0
3002 3001 -2957 0
-3002 3001 2957 0
3002 -3001 2957 0
-559 -2925 3003 0
-559 -3001 3003 0
-2925 -3001 3003 0
559 2925 -3003 0
559 3001 -3003 0
2925 3001 -3003 0
-560 -2926 -3004 0
560 2926 -3004 0
-560 2926 3004 0
560 -2926 3004 0
-3004 -3003 -2958 0
3004 3003 -2958 0
-3004 3003 2958 0
3004 -3003 2958 0
-560 -2926 3005 0
-560 -3003 3005 0
-2926 -3003 3005 0
560 2926 -3005 0
560 3003 -3005 0
2926 3003 -3005 0
-561 -2927 -3006 0
561 2927 -3006 0
-561 2927 3006 0
561 -2927 3006 0
-3006 -3005 -2959 0
3006 3005 -2959 0
-3006 3005 2959 0
3006 -3005 2959 0
-561 -2927 3007 0
-561 -3005 3007 0
-2927 -3005 3007 0
561 2927 -3007 0
561 3005 -3007 0
2927 3005 -3007 0
-562 -2928 -3008 0
562 2928 -3008 0
-562 2928 3008 0
562 -2928 3008 0
-3008 -3007 -2960 0
3008 3007 -2960 0
-3008 3007 2960 0
3008 -3007 2960 0
-562 -2928 3009 0
-562 -3007 3009 0
-2928 -3007 3009 0
562 2928 -3009 0
562 3007 -3009 0
2928 3007 -3009 0
-563 -2929 -3010 0
563 2929 -3010 0
-563 2929 3010 0
563 -2929 3010 0
-3010 -3009 -2961 0
3010 3009 -2961 0
-3010 3009 2961 0
3010 -3009 2961 0
-563 -2929 3011 0
-563 -3009 3011 0
-2929 -3009 3011 0
563 2929 -3011 0
563 3009 -3011 0
2929 3009 -3011 0
-564 -2930 -3012 0
564 2930 -3012 0
-564 2930 3012 0
564 -2930 3012 0
-3012 -3011 -2962 0
3012 3011 -2962 0
-3012 3011 2962 0
3012 -3011 2962 0
-564 -2930 3013 0
-564 -3011 3013 0
-2930 -3011 3013 0
564 2930 -3013 0
564 3011 -3013 0
2930 3011 -3013 0
-565 -2931 -3014 0
565 2931 -3014 0
-565 2931 3014 0
565 -2931 3014 0
-3014 -3013 -2963 0
3014 3013 -2963 0
-3014 3013 2963 0
3014 -3013 2963 0
-565 -2931 3015 0
-565 -3013 3015 0
-2931 -3013 3015 0
565 2931 -3015 0
565 3013 -3015 0
2931 3013 -3015 0
-566 -2932 -3016 0
566 2932 -3016 0
-566 2932 3016 0
566 -2932 3016 0
-3016 -3015 -2964 0
3016 3015 -2964 0
-3016 3015 2964 0
3016 -3015 2964 0
-566 -2932 3017 0
-566 -3015 3017 0
-2932 -3015 3017 0
566 2932 -3017 0
566 3015 -3017 0
2932 3015 -3017 0
-567 -2933 -3018 0
567 2933 -3018 0
-567 2933 3018 0
567 -2933 3018 0
-3018 -3017 -2965 0
3018 3017 -2965 0
-3018 3017 2965 0
3018 -3017 2965 0
-567 -2933 3019 0
-567 -3017 3019 0
-2933 -3017 3019 0
567 2933 -3019 0
567 3017 -3019 0
2933 3017 -3019 0
-568 -2934 -3020 0
568 2934 -3020 0
-568 2934 3020 0
568 -2934 3020 0
-3020 -3019 -2966 0
3020 3019 -2966 0
-3020 3019 2966 0
3020 -3019 2966 0
-568 -2934 3021 0
-568 -3019 3021 0
-2934 -3019 3021 0
568 2934 -3021 0
568 3019 -3021 0
2934 3019 -3021 0
-569 -2935 -3022 0
569 2935 -3022 0
-569 2935 3022 0
569 -2935 3022 0
-3022 -3021 -2967 0
3022 3021 -2967 0
-3022 3021 2967 0
3022 -3021 2967 0
-569 -2935 3023 0
-569 -3021 3023 0
-2935 -3021 3023 0
569 2935 -3023 0
569 3021 -3023 0
2935 3021 -3023 0
-570 -2936 -3024 0
570 2936 -3024 0
-570 2936 3024 0
570 -2936 3024 0
-3024 -3023 -2968 0
3024 3023 -2968 0
-3024 3023 2968 0
3024 -3023 2968 0
-570 -2936 3025 0
-570 -3023 3025 0
-2936 -3023 3025 0
570 2936 -3025 0
570 3023 -3025 0
2936 3023 -3025 0
-571 -2937 -3026 0
571 2937 -3026 0
-571 2937 3026 0
571 -2937 3026 0
-3026 -3025 -2969 0
3026 3025 -2969 0
-3026 3025 2969 0
3026 -3025 2969 0
-571 -2937 3027 0
-571 -3025 3027 0
-2937 -3025 3027 0
571 2937 -3027 0
571 3025 -3027 0
2937 3025 -3027 0
-572 -2938 -3028 0
572 2938 -3028 0
-572 2938 3028 0
572 -2938 3028 0
-3028 -3027 -2970 0
3028 3027 -2970 0
-3028 3027 2970 0
3028 -3027 2970 0
-572 -2938 3029 0
-572 -3027 3029 0
-2938 -3027 3029 0
572 2938 -3029 0
572 3027 -3029 0
2938 3027 -3029 0
-573 -2939 -3030 0
573 2939 -3030 0
-573 2939 3030 0
573 -2939 3030 0
-3030 -3029 -2971 0
3030 3029 -2971 0
-3030 3029 2971 0
3030 -3029 2971 0
-573 -2939 3031 0
-573 -3029 3031 0
-2939 -3029 3031 0
573 2939 -3031 0
573 3029 -3031 0
2939 3029 -3031 0
-574 -2940 -3032 0
574 2940 -3032 0
-574 2940 3032 0
574 -2940 3032 0
-3032 -3031 -2972 0
3032 3031 -2972 0
-3032 3031 2972 0
3032 -3031 2972 0
-574 -2940 3033 0
-574 -3031 3033 0
-2940 -3031 3033 0
574 2940 -3033 0
574 3031 -3033 0
2940 3031 -3033 0
-575 -2941 -3034 0
575 2941 -3034 0
-575 2941 3034 0
575 -2941 3034 0
-3034 -3033 -2973 0
3034 3033 -2973 0
-3034 3033 2973 0
3034 -3033 2973 0
-575 -2941 3035 0
-575 -3033 3035 0
-2941 -3033 3035 0
575 2941 -3035 0
575 3033 -3035 0
2941 3033 -3035 0
-576 -2942 -3036 0
576 2942 -3036 0
-576 2942 3036 0
576 -2942 3036 0
-3036 -3035 -2974 0
3036 3035 -2974 0
-3036 3035 2974 0
3036 -3035 2974 0
3037 0
3038 0
3039 0
3040 0
3041 0
3042 0
3043 0
-3044 0
-3045 0
3046 0
-3047 0
-3048 0
3049 0
-3050 0
3051 0
-3052 0
-3053 0
3054 0
3055 0
3056 0
-3057 0
-3058 0
-3059 0
-3060 0
3061 0
-3062 0
-3063 0
-3064 0
3065 0
-3066 0
3067 0
-3068 0
-2345 -3037 -3069 0
2345 3037 -3069 0
-2345 3037 3069 0
2345 -3037 3069 0
-2345 -3037 3101 0
2345 -3101 0
3037 -3101 0
-2346 -3038 -3102 0
2346 3038 -3102 0
-2346 3038 3102 0
2346 -3038 3102 0
-3102 -3101 -3070 0
3102 3101 -3070 0
-3102 3101 3070 0
3102 -3101 3070 0
-2346 -3038 3103 0
-2346 -3101 3103 0
-3038 -3101 3103 0
2346 3038 -3103 0
2346 3101 -3103 0
3038 3101 -3103 0
-2347 -3039 -3104 0
2347 3039 -3104 0
-2347 3039 3104 0
2347 -3039 3104 0
-3104 -3103 -3071 0
3104 3103 -3071 0
-3104 3103 3071 0
3104 -3103 3071 0
-2347 -3039 3105 0
-2347 -3103 3105 0
-3039 -3103 3105 0
2347 3039 -3105 0
2347 3103 -3105 0
3039 3103 -3105 0
-2348 -3040 -3106 0
2348 3040 -3106 0
-2348 3040 3106 0
2348 -3040 3106 0
-3106 -3105 -3072 0
3106 3105 -3072 0
-3106 3105 3072 0
3106 -3105 3072 0
-2348 -3040 3107 0
-2348 -3105 3107 0
-3040 -3105 3107 0
2348 3040 -3107 0
2348 3105 -3107 0
3040 3105 -3107 0
-2349 -3041 -3108 0
2349 3041 -3108 0
-2349 3041 3108 0
2349 -3041 3108 0
-3108 -3107 -3073 0
3108 3107 -3073 0
-3108 3107 3073 0
3108 -3107 3073 0
-2349 -3041 3109 0
-2349 -3107 3109 0
-3041 -3107 3109 0
2349 3041 -3109 0
2349 3107 -3109 0
3041 3107 -3109 0
-2350 -3042 -3110 0
2350 3042 -3110 0
-2350 3042 3110 0
2350 -3042 3110 0
-3110 -3109 -3074 0
3110 3109 -3074 0
-3110 3109 3074 0
3110 -3109 3074 0
-2350 -3042 3111 0
-2350 -3109 3111 0
-3042 -3109 3111 0
2350 3042 -3111 0
2350 3109 -3111 0
3042 3109 -3111 0
-2351 -3043 -3112 0
2351 3043 -3112 0
-2351 3043 3112 0
2351 -3043 3112 0
-3112 -3111 -3075 0
3112 3111 -3075 0
-3112 3111 3075 0
3112 -3111 3075 0
-2351 -3043 3113 0
-2351 -3111 3113 0
-3043 -3111 3113 0
2351 3043 -3113 0
2351 3111 -3113 0
3043 3111 -3113 0
-2352 -3044 -3114 0
2352 3044 -3114 0
-2352 3044 3114 0
2352 -3044 3114 0
-3114 -3113 -3076 0
3114 3113 -3076 0
-3114 3113 3076 0
3114 -3113 3076 0
-2352 -3044 3115 0
-2352 -3113 3115 0
-3044 -3113 3115 0
2352 3044 -3115 0
2352 3113 -3115 0
3044 3113 -3115 0
-2353 -3045 -3116 0
2353 3045 -3116 0
-2353 3045 3116 0
2353 -3045 3116 0
-3116 -3115 -3077 0
3116 3115 -3077 0
-3116 3115 3077 0
3116 -3115 3077 0
-2353 -3045 3117 0
-2353 -3115 3117 0
-3045 -3115 3117 0
2353 3045 -3117 0
2353 3115 -3117 0
3045 3115 -3117 0
-2354 -3046 -3118 0
2354 3046 -3118 0
-2354 3046 3118 0
2354 -3046 3118 0
-3118 -3117 -3078 0
3118 3117 -3078 0
-3118 3117 3078 0
3118 -3117 3078 0
-2354 -3046 3119 0
-2354 -3117 3119 0
-3046 -3117 3119 0
2354 3046 -3119 0
2354 3117 -3119 0
3046 3117 -3119 0
-2355 -3047 -3120 0
2355 3047 -3120 0
-2355 3047 3120 0
2355 -3047 3120 0
-3120 -3119 -3079 0
3120 3119 -3079 0
-3120 3119 3079 0
3120 -3119 3079 0
-2355 -3047 3121 0
-2355 -3119 3121 0
-3047 -3119 3121 0
2355 3047 -3121 0
2355 3119 -3121 0
3047 3119 -3121 0
-2356 -3048 -3122 0
2356 3048 -3122 0
-2356 3048 3122 0
2356 -3048 3122 0
-3122 -3121 -3080 0
3122 3121 -3080 0
-3122 3121 3080 0
3122 -3121 3080 0
-2356 -3048 3123 0
-2356 -3121 3123 0
-3048 -3121 3123 0
2356 3048 -3123 0
2356 3121 -3123 0
3048 3121 -3123 0
-2357 -3049 -3124 0
2357 3049 -3124 0
-2357 3049 3124 0
2357 -3049 3124 0
-3124 -3123 -3081 0
3124 3123 -3081 0
-3124 3123 3081 0
3124 -3123 3081 0
-2357 -3049 3125 0
-2357 -3123 3125 0
-3049 -3123 3125 0
2357 3049 -3125 0
2357 3123 -3125 0
3049 3123 -3125 0
-2358 -3050 -3126 0
2358 3050 -3126 0
-2358 3050 3126 0
2358 -3050 3126 0
-3126 -3125 -3082 0
3126 3125 -3082 0
-3126 3125 3082 0
3126 -3125 3082 0
-2358 -3050 3127 0
-2358 -3125 3127 0
-3050 -3125 3127 0
2358 3050 -3127 0
2358 3125 -3127 0
3050 3125 -3127 0
-2359 -3051 -3128 0
2359 3051 -3128 0
-2359 3051 3128 0
2359 -3051 3128 0
-3128 -3127 -3083 0
3128 3127 -3083 0
-3128 3127 3083 0
3128 -3127 3083 0
-2359 -3051 3129 0
-2359 -3127 3129 0
-3051 -3127 3129 0
2359 3051 -3129 0
2359 3127 -3129 0
3051 3127 -3129 0
-2360 -3052 -3130 0
2360 3052 -3130 0
-2360 3052 3130 0
2360 -3052 3130 0
-3130 -3129 -3084 0
3130 3129 -3084 0
-3130 3129 3084 0
3130 -3129 3084 0
-2360 -3052 3131 0
-2360 -3129 3131 0
-3052 -3129 3131 0
2360 3052 -3131 0
2360 3129 -3131 0
3052 3129 -3131 0
-2361 -3053 -3132 0
2361 3053 -3132 0
-2361 3053 3132 0
2361 -3053 3132 0
-3132 -3131 -3085 0
3132 3131 -3085 0
-3132 3131 3085 0
3132 -3131 3085 0
-2361 -3053 3133 0
-2361 -3131 3133 0
-3053 -3131 3133 0
2361 3053 -3133 0
2361 3131 -3133 0
3053 3131 -3133 0
-2362 -3054 -3134 0
2362 3054 -3134 0
-2362 3054 3134 0
2362 -3054 3134 0
-3134 -3133 -3086 0
3134 3133 -3086 0
-3134 3133 3086 0
3134 -3133 3086 0
-2362 -3054 3135 0
-2362 -3133 3135 0
-3054 -3133 3135 0
2362 3054 -3135 0
2362 3133 -3135 0
3054 3133 -3135 0
-2363 -3055 -3136 0
2363 3055 -3136 0
-2363 3055 3136 0
2363 -3055 3136 0
-3136 -3135 -3087 0
3136 3135 -3087 0
-3136 3135 3087 0
3136 -3135 3087 0
-2363 -3055 3137 0
-2363 -3135 3137 0
-3055 -3135 3137 0
2363 3055 -3137 0
2363 3135 -3137 0
3055 3135 -3137 0
-2364 -3056 -3138 0
2364 3056 -3138 0
-2364 3056 3138 0
2364 -3056 3138 0
-3138 -3137 -3088 0
3138 3137 -3088 0
-3138 3137 3088 0
3138 -3137 3088 0
-2364 -3056 3139 0
-2364 -3137 3139 0
-3056 -3137 3139 0
2364 3056 -3139 0
2364 3137 -3139 0
3056 3137 -3139 0
-2365 -3057 -3140 0
2365 3057 -3140 0
-2365 3057 3140 0
2365 -3057 3140 0
-3140 -3139 -3089 0
3140 3139 -3089 0
-3140 3139 3089 0
3140 -3139 3089 0
-2365 -3057 3141 0
-2365 -3139 3141 0
-3057 -3139 3141 0
2365 3057 -3141 0
2365 3139 -3141 0
3057 3139 -3141 0
-2366 -3058 -3142 0
2366 3058 -3142 0
-2366 3058 3142 0
2366 -3058 3142 0
-3142 -3141 -3090 0
3142 3141 -3090 0
-3142 3141 3090 0
3142 -3141 3090 0
-2366 -3058 3143 0
-2366 -3141 3143 0
-3058 -3141 3143 0
2366 3058 -3143 0
2366 3141 -3143 0
3058 3141 -3143 0
-2367 -3059 -3144 0
2367 3059 -3144 0
-2367 3059 3144 0
2367 -3059 3144 0
-3144 -3143 -3091 0
3144 3143 -3091 0
-3144 3143 3091 0
3144 -3143 3091 0
-2367 -3059 3145 0
-2367 -3143 3145 0
-3059 -3143 3145 0
2367 3059 -3145 0
2367 3143 -3145 0
3059 3143 -3145 0
-2368 -3060 -3146 0
2368 3060 -3146 0
-2368 3060 3146 0
2368 -3060 3146 0
-3146 -3145 -3092 0
3146 3145 -3092 0
-3146 3145 3092 0
3146 -3145 3092 0
-2368 -3060 3147 0
-2368 -3145 3147 0
-3060 -3145 3147 0
2368 3060 -3147 0
2368 3145 -3147 0
3060 3145 -3147 0
-2369 -3061 -3148 0
2369 3061 -3148 0
-2369 3061 3148 0
2369 -3061 3148 0
-3148 -3147 -3093 0
3148 3147 -3093 0
-3148 3147 3093 0
3148 -3147 3093 0
-2369 -3061 3149 0
-2369 -3147 3149 0
-3061 -3147 3149 0
2369 3061 -3149 0
2369 3147 -3149 0
3061 3147 -3149 0
-2370 -3062 -3150 0
2370 3062 -3150 0
-2370 3062 3150 0
2370 -3062 3150 0
-3150 -3149 -3094 0
3150 3149 -3094 0
-3150 3149 3094 0
3150 -3149 3094 0
-2370 -3062 3151 0
-2370 -3149 3151 0
-3062 -3149 3151 0
2370 3062 -3151 0
2370 3149 -3151 0
3062 3149 -3151 0
-2371 -3063 -3152 0
2371 3063 -3152 0
-2371 3063 3152 0
2371 -3063 3152 0
-3152 -3151 -3095 0
3152 3151 -3095 0
-3152 3151 3095 0
3152 -3151 3095 0
-2371 -3063 3153 0
-2371 -3151 3153 0
-3063 -3151 3153 0
2371 3063 -3153 0
2371 3151 -3153 0
3063 3151 -3153 0
-2372 -3064 -3154 0
2372 3064 -3154 0
-2372 3064 3154 0
2372 -3064 3154 0
-3154 -3153 -3096 0
3154 3153 -3096 0
-3154 3153 3096 0
3154 -3153 3096 0
-2372 -3064 3155 0
-2372 -3153 3155 0
-3064 -3153 3155 0
2372 3064 -3155 0
2372 3153 -3155 0
3064 3153 -3155 0
-2373 -3065 -3156 0
2373 3065 -3156 0
-2373 3065 3156 0
2373 -3065 3156 0
-3156 -3155 -3097 0
3156 3155 -3097 0
-3156 3155 3097 0
3156 -3155 3097 0
-2373 -3065 3157 0
-2373 -3155 3157 0
-3065 -3155 3157 0
2373 3065 -3157 0
2373 3155 -3157 0
3065 3155 -3157 0
-2374 -3066 -3158 0
2374 3066 -3158 0
-2374 3066 3158 0
2374 -3066 3158 0
-3158 -3157 -3098 0
3158 3157 -3098 0
-3158 3157 3098 0
3158 -3157 3098 0
-2374 -3066 3159 0
-2374 -3157 3159 0
-3066 -3157 3159 0
2374 3066 -3159 0
2374 3157 -3159 0
3066 3157 -3159 0
-2375 -3067 -3160 0
2375 3067 -3160 0
-2375 3067 3160 0
2375 -3067 3160 0
-3160 -3159 -3099 0
3160 3159 -3099 0
-3160 3159 3099 0
3160 -3159 3099 0
-2375 -3067 3161 0
-2375 -3159 3161 0
-3067 -3159 3161 0
2375 3067 -3161 0
2375 3159 -3161 0
3067 3159 -3161 0
-2376 -3068 -3162 0
2376 3068 -3162 0
-2376 3068 3162 0
2376 -3068 3162 0
-3162 -3161 -3100 0
3162 3161 -3100 0
-3162 3161 3100 0
3162 -3161 3100 0
-3163 0
-3164 0
3165 0
3166 0
-3167 0
-3168 0
-3169 0
3170 0
-3171 0
-3172 0
-3173 0
3174 0
-3175 0
3176 0
3177 0
-3178 0
3179 0
-3180 0
3181 0
-3182 0
-3183 0
-3184 0
-3185 0
-3186 0
3187 0
3188 0
-3189 0
3190 0
3191 0
-3192 0
-3193 0
3194 0
-1463 -3163 -3195 0
1463 3163 -3195 0
-1463 3163 3195 0
1463 -3163 3195 0
-1463 -3163 3227 0
1463 -3227 0
3163 -3227 0
-1464 -3164 -3228 0
1464 3164 -3228 0
-1464 3164 3228 0
1464 -3164 3228 0
-3228 -3227 -3196 0
3228 3227 -3196 0
-3228 3227 3196 0
3228 -3227 3196 0
-1464 -3164 3229 0
-1464 -3227 3229 0
-3164 -3227 3229 0
1464 3164 -3229 0
1464 3227 -3229 0
3164 3227 -3229 0
-1465 -3165 -3230 0
1465 3165 -3230 0
-1465 3165 3230 0
1465 -3165 3230 0
-3230 -3229 -3197 0
3230 3229 -3197 0
-3230 3229 3197 0
3230 -3229 3197 0
-1465 -3165 3231 0
-1465 -3229 3231 0
-3165 -3229 3231 0
1465 3165 -3231 0
1465 3229 -3231 0
3165 3229 -3231 0
-1466 -3166 -3232 0
1466 3166 -3232 0
-1466 3166 3232 0
1466 -3166 3232 0
-3232 -3231 -3198 0
3232 3231 -3198 0
-3232 3231 3198 0
3232 -3231 3198 0
-1466 -3166 3233 0
-1466 -3231 3233 0
-3166 -3231 3233 0
1466 3166 -3233 0
1466 3231 -3233 0
3166 3231 -3233 0
-1467 -3167 -3234 0
1467 3167 -3234 0
-1467 3167 3234 0
1467 -3167 3234 0
-3234 -3233 -3199 0
3234 3233 -3199 0
-3234 3233 3199 0
3234 -3233 3199 0
-1467 -3167 3235 0
-1467 -3233 3235 0
-3167 -3233 3235 0
1467 3167 -3235 0
1467 3233 -3235 0
3167 3233 -3235 0
-1468 -3168 -3236 0
1468 3168 -3236 0
-1468 3168 3236 0
1468 -3168 3236 0
-3236 -3235 -3200 0
3236 3235 -3200 0
-3236 3235 3200 0
3236 -3235 3200 0
-1468 -3168 3237 0
-1468 -3235 3237 0
-3168 -3235 3237 0
1468 3168 -3237 0
1468 3235 -3237 0
3168 3235 -3237 0
-1469 -3169 -3238 0
1469 3169 -3238 0
-1469 3169 3238 0
1469 -3169 3238 0
-3238 -3237 -3201 0
3238 3237 -3201 0
-3238 3237 3201 0
3238 -3237 3201 0
-1469 -3169 3239 0
-1469 -3237 3239 0
-3169 -3237 3239 0
1469 3169 -3239 0
1469 3237 -3239 0
3169 3237 -3239 0
-1470 -3170 -3240 0
1470 3170 -3240 0
-1470 3170 3240 0
1470 -3170 3240 0
-3240 -3239 -3202 0
3240 3239 -3202 0
-3240 3239 3202 0
3240 -3239 3202 0
-1470 -3170 3241 0
-1470 -3239 3241 0
-3170 -3239 3241 0
1470 3170 -3241 0
1470 3239 -3241 0
3170 3239 -3241 0
-1471 -3171 -3242 0
1471 3171 -3242 0
-1471 3171 3242 0
1471 -3171 3242 0
-3242 -3241 -3203 0
3242 3241 -3203 0
-3242 3241 3203 0
3242 -3241 3203 0
-1471 -3171 3243 0
-1471 -3241 3243 0
-3171 -3241 3243 0
1471 3171 -3243 0
1471 3241 -3243 0
3171 3241 -3243 0
-1472 -3172 -3244 0
1472 3172 -3244 0
-1472 3172 3244 0
1472 -3172 3244 0
-3244 -3243 -3204 0
3244 3243 -3204 0
-3244 3243 3204 0
3244 -3243 3204 0
-1472 -3172 3245 0
-1472 -3243 3245 0
-3172 -3243 3245 0
1472 3172 -3245 0
1472 3243 -3245 0
3172 3243 -3245 0
-1473 -3173 -3246 0
1473 3173 -3246 0
-1473 3173 3246 0
1473 -3173 3246 0
-3246 -3245 -3205 0
3246 3245 -3205 0
-3246 3245 3205 0
3246 -3245 3205 0
-1473 -3173 3247 0
-1473 -3245 3247 0
-3173 -3245 3247 0
1473 3173 -3247 0
1473 3245 -3247 0
3173 3245 -3247 0
-1474 -3174 -3248 0
1474 3174 -3248 0
-1474 3174 3248 0
1474 -3174 3248 0
-3248 -3247 -3206 0
3248 3247 -3206 0
-3248 3247 3206 0
3248 -3247 3206 0
-1474 -3174 3249 0
-1474 -3247 3249 0
-3174 -3247 3249 0
1474 3174 -3249 0
1474 3247 -3249 0
3174 3247 -3249 0
-1475 -3175 -3250 0
1475 3175 -3250 0
-1475 3175 3250 0
1475 -3175 3250 0
-3250 -3249 -3207 0
3250 3249 -3207 0
-3250 3249 3207 0
3250 -3249 3207 0
-1475 -3175 3251 0
-1475 -3249 3251 0
-3175 -3249 3251 0
1475 3175 -3251 0
1475 3249 -3251 0
3175 3249 -3251 0
-1476 -3176 -3252 0
1476 3176 -3252 0
-1476 3176 3252 0
1476 -3176 3252 0
-3252 -3251 -3208 0
3252 3251 -3208 0
-3252 3251 3208 0
3252 -3251 3208 0
-1476 -3176 3253 0
-1476 -3251 3253 0
-3176 -3251 3253 0
1476 3176 -3253 0
1476 3251 -3253 0
3176 3251 -3253 0
-1477 -3177 -3254 0
1477 3177 -3254 0
-1477 3177 3254 0
1477 -3177 3254 0
-3254 -3253 -3209 0
3254 3253 -3209 0
-3254 3253 3209 0
3254 -3253 3209 0
-1477 -3177 3255 0
-1477 -3253 3255 0
-3177 -3253 3255 0
1477 3177 -3255 0
1477 3253 -3255 0
3177 3253 -3255 0
-1478 -3178 -3256 0
1478 3178 -3256 0
-1478 3178 3256 0
1478 -3178 3256 0
-3256 -3255 -3210 0
3256 3255 -3210 0
-3256 3255 3210 0
3256 -3255 3210 0
-1478 -3178 3257 0
-1478 -3255 3257 0
-3178 -3255 3257 0
1478 3178 -3257 0
1478 3255 -3257 0
3178 3255 -3257 0
-1479 -3179 -3258 0
1479 3179 -3258 0
-1479 3179 3258 0
1479 -3179 3258 0
-3258 -3257 -3211 0
3258 3257 -3211 0
-3258 3257 3211 0
3258 -3257 3211 0
-1479 -3179 3259 0
-1479 -3257 3259 0
-3179 -3257 3259 0
1479 3179 -3259 0
1479 3257 -3259 0
3179 3257 -3259 0
-1480 -3180 -3260 0
1480 3180 -3260 0
-1480 3180 3260 0
1480 -3180 3260 0
-3260 -3259 -3212 0
3260 3259 -3212 0
-3260 3259 3212 0
3260 -3259 3212 0
-1480 -3180 3261 0
-1480 -3259 3261 0
-3180 -3259 3261 0
1480 3180 -3261 0
1480 3259 -3261 0
3180 3259 -3261 0
-1481 -3181 -3262 0
1481 3181 -3262 0
-1481 3181 3262 0
1481 -3181 3262 0
-3262 -3261 -3213 0
3262 3261 -3213 0
-3262 3261 3213 0
3262 -3261 3213 0
-1481 -3181 3263 0
-1481 -3261 3263 0
-3181 -3261 3263 0
1481 3181 -3263 0
1481 3261 -3263 0
3181 3261 -3263 0
-1482 -3182 -3264 0
1482 3182 -3264 0
-1482 3182 3264 0
1482 -3182 3264 0
-3264 -3263 -3214 0
3264 3263 -3214 0
-3264 3263 3214 0
3264 -3263 3214 0
-1482 -3182 3265 0
-1482 -3263 3265 0
-3182 -3263 3265 0
1482 3182 -3265 0
1482 3263 -3265 0
3182 3263 -3265 0
-1483 -3183 -3266 0
1483 3183 -3266 0
-1483 3183 3266 0
1483 -3183 3266 0
-3266 -3265 -3215 0
3266 3265 -3215 0
-3266 3265 3215 0
3266 -3265 3215 0
-1483 -3183 3267 0
-1483 -3265 3267 0
-3183 -3265 3267 0
1483 3183 -3267 0
1483 3265 -3267 0
3183 3265 -3267 0
-1484 -3184 -3268 0
1484 3184 -3268 0
-1484 3184 3268 0
1484 -3184 3268 0
-3268 -3267 -3216 0
3268 3267 -3216 0
-3268 3267 3216 0
3268 -3267 3216 0
-1484 -3184 3269 0
-1484 -3267 3269 0
-3184 -3267 3269 0
1484 3184 -3269 0
1484 3267 -3269 0
3184 3267 -3269 0
-1485 -3185 -3270 0
1485 3185 -3270 0
-1485 3185 3270 0
1485 -3185 3270 0
-3270 -3269 -3217 0
3270 3269 -3217 0
-3270 3269 3217 0
3270 -3269 3217 0
-1485 -3185 3271 0
-1485 -3269 3271 0
-3185 -3269 3271 0
1485 3185 -3271 0
1485 3269 -3271 0
3185 3269 -3271 0
-1486 -3186 -3272 0
1486 3186 -3272 0
-1486 3186 3272 0
1486 -3186 3272 0
-3272 -3271 -3218 0
3272 3271 -3218 0
-3272 3271 3218 0
3272 -3271 3218 0
-1486 -3186 3273 0
-1486 -3271 3273 0
-3186 -3271 3273 0
1486 3186 -3273 0
1486 3271 -3273 0
3186 3271 -3273 0
-1487 -3187 -3274 0
1487 3187 -3274 0
-1487 3187 3274 0
1487 -3187 3274 0
-3274 -3273 -3219 0
3274 3273 -3219 0
-3274 3273 3219 0
3274 -3273 3219 0
-1487 -3187 3275 0
-1487 -3273 3275 0
-3187 -3273 3275 0
1487 3187 -3275 0
1487 3273 -3275 0
3187 3273 -3275 0
-1488 -3188 -3276 0
1488 3188 -3276 0
-1488 3188 3276 0
1488 -3188 3276 0
-3276 -3275 -3220 0
3276 3275 -3220 0
-3276 3275 3220 0
3276 -3275 3220 0
-1488 -3188 3277 0
-1488 -3275 3277 0
-3188 -3275 3277 0
1488 3188 -3277 0
1488 3275 -3277 0
3188 3275 -3277 0
-1489 -3189 -3278 0
1489 3189 -3278 0
-1489 3189 3278 0
1489 -3189 3278 0
-3278 -3277 -3221 0
3278 3277 -3221 0
-3278 3277 3221 0
3278 -3277 3221 0
-1489 -3189 3279 0
-1489 -3277 3279 0
-3189 -3277 3279 0
1489 3189 -3279 0
1489 3277 -3279 0
3189 3277 -3279 0
-1490 -3190 -3280 0
1490 3190 -3280 0
-1490 3190 3280 0
1490 -3190 3280 0
-3280 -3279 -3222 0
3280 3279 -3222 0
-3280 3279 3222 0
3280 -3279 3222 0
-1490 -3190 3281 0
-1490 -3279 3281 0
-3190 -3279 3281 0
1490 3190 -3281 0
1490 3279 -3281 0
3190 3279 -3281 0
-1491 -3191 -3282 0
1491 3191 -3282 0
-1491 3191 3282 0
1491 -3191 3282 0
-3282 -3281 -3223 0
3282 3281 -3223 0
-3282 3281 3223 0
3282 -3281 3223 0
-1491 -3191 3283 0
-1491 -3281 3283 0
-3191 -3281 3283 0
1491 3191 -3283 0
1491 3281 -3283 0
3191 3281 -3283 0
-1492 -3192 -3284 0
1492 3192 -3284 0
-1492 3192 3284 0
1492 -3192 3284 0
-3284 -3283 -3224 0
3284 3283 -3224 0
-3284 3283 3224 0
3284 -3283 3224 0
-1492 -3192 3285 0
-1492 -3283 3285 0
-3192 -3283 3285 0
1492 3192 -3285 0
1492 3283 -3285 0
3192 3283 -3285 0
-1493 -3193 -3286 0
1493 3193 -3286 0
-1493 3193 3286 0
1493 -3193 3286 0
-3286 -3285 -3225 0
3286 3285 -3225 0
-3286 3285 3225 0
3286 -3285 3225 0
-1493 -3193 3287 0
-1493 -3285 3287 0
-3193 -3285 3287 0
1493 3193 -3287 0
1493 3285 -3287 0
3193 3285 -3287 0
-1494 -3194 -3288 0
1494 3194 -3288 0
-1494 3194 3288 0
1494 -3194 3288 0
-3288 -3287 -3226 0
3288 3287 -3226 0
-3288 3287 3226 0
3288 -3287 3226 0
3289 0
3290 0
-3291 0
3292 0
-3293 0
3294 0
-3295 0
3296 0
3297 0
-3298 0
-3299 0
3300 0
3301 0
-3302 0
3303 0
3304 0
3305 0
3306 0
-3307 0
-3308 0
-3309 0
-3310 0
-3311 0
3312 0
3313 0
3314 0
3315 0
3316 0
3317 0
-3318 0
-3319 0
-3320 0
-641 -3289 -3321 0
641 3289 -3321 0
-641 3289 3321 0
641 -3289 3321 0
-641 -3289 3353 0
641 -3353 0
3289 -3353 0
-642 -3290 -3354 0
642 3290 -3354 0
-642 3290 3354 0
642 -3290 3354 0
-3354 -3353 -3322 0
3354 3353 -3322 0
-3354 3353 3322 0
3354 -3353 3322 0
-642 -3290 3355 0
-642 -3353 3355 0
-3290 -3353 3355 0
642 3290 -3355 0
642 3353 -3355 0
3290 3353 -3355 0
-643 -3291 -3356 0
643 3291 -3356 0
-643 3291 3356 0
643 -3291 3356 0
-3356 -3355 -3323 0
3356 3355 -3323 0
-3356 3355 3323 0
3356 -3355 3323 0
-643 -3291 3357 0
-643 -3355 3357 0
-3291 -3355 3357 0
643 3291 -3357 0
643 3355 -3357 0
3291 3355 -3357 0
-644 -3292 -3358 0
644 3292 -3358 0
-644 3292 3358 0
644 -3292 3358 0
-3358 -3357 -3324 0
3358 3357 -3324 0
-3358 3357 3324 0
3358 -3357 3324 0
-644 -3292 3359 0
-644 -3357 3359 0
-3292 -3357 3359 0
644 3292 -3359 0
644 3357 -3359 0
3292 3357 -3359 0
-645 -3293 -3360 0
645 3293 -3360 0
-645 3293 3360 0
645 -3293 3360 0
-3360 -3359 -3325 0
3360 3359 -3325 0
-3360 3359 3325 0
3360 -3359 3325 0
-645 -3293 3361 0
-645 -3359 3361 0
-3293 -3359 3361 0
645 3293 -3361 0
645 3359 -3361 0
3293 3359 -3361 0
-646 -3294 -3362 0
646 3294 -3362 0
-646 3294 3362 0
646 -3294 3362 0
-3362 -3361 -3326 0
3362 3361 -3326 0
-3362 3361 3326 0
3362 -3361 3326 0
-646 -3294 3363 0
-646 -3361 3363 0
-3294 -3361 3363 0
646 3294 -3363 0
646 3361 -3363 0
3294 3361 -3363 0
-647 -3295 -3364 0
647 3295 -3364 0
-647 3295 3364 0
647 -3295 3364 0
-3364 -3363 -3327 0
3364 3363 -3327 0
-3364 3363 3327 0
3364 -3363 3327 0
-647 -3295 3365 0
-647 -3363 3365 0
-3295 -3363 3365 0
647 3295 -3365 0
647 3363 -3365 0
3295 3363 -3365 0
-648 -3296 -3366 0
648 3296 -3366 0
-648 3296 3366 0
648 -3296 3366 0
-3366 -3365 -3328 0
3366 3365 -3328 0
-3366 3365 3328 0
3366 -3365 3328 0
-648 -3296 3367 0
-648 -3365 3367 0
-3296 -3365 3367 0
648 3296 -3367 0
648 3365 -3367 0
3296 3365 -3367 0
-649 -3297 -3368 0
649 3297 -3368 0
-649 3297 3368 0
649 -3297 3368 0
-3368 -3367 -3329 0
3368 3367 -3329 0
-3368 3367 3329 0
3368 -3367 3329 0
-649 -3297 3369 0
-649 -3367 3369 0
-3297 -3367 3369 0
649 3297 -3369 0
649 3367 -3369 0
3297 3367 -3369 0
-650 -3298 -3370 0
650 3298 -3370 0
-650 3298 3370 0
650 -3298 3370 0
-3370 -3369 -3330 0
3370 3369 -3330 0
-3370 3369 3330 0
3370 -3369 3330 0
-650 -3298 3371 0
-650 -3369 3371 0
-3298 -3369 3371 0
650 3298 -3371 0
650 3369 -3371 0
3298 3369 -3371 0
-651 -3299 -3372 0
651 3299 -3372 0
-651 3299 3372 0
651 -3299 3372 0
-3372 -3371 -3331 0
3372 3371 -3331 0
-3372 3371 3331 0
3372 -3371 3331 0
-651 -3299 3373 0
-651 -3371 3373 0
-3299 -3371 3373 0
651 3299 -3373 0
651 3371 -3373 0
3299 3371 -3373 0
-652 -3300 -3374 0
652 3300 -3374 0
-652 3300 3374 0
652 -3300 3374 0
-3374 -3373 -3332 0
3374 3373 -3332 0
-3374 3373 3332 0
3374 -3373 3332 0
-652 -3300 3375 0
-652 -3373 3375 0
-3300 -3373 3375 0
652 3300 -3375 0
652 3373 -3375 0
3300 3373 -3375 0
-653 -3301 -3376 0
653 3301 -3376 0
-653 3301 3376 0
653 -3301 3376 0
-3376 -3375 -3333 0
3376 3375 -3333 0
-3376 3375 3333 0
3376 -3375 3333 0
-653 -3301 3377 0
-653 -3375 3377 0
-3301 -3375 3377 0
653 3301 -3377 0
653 3375 -3377 0
3301 3375 -3377 0
-654 -3302 -3378 0
654 3302 -3378 0
-654 3302 3378 0
654 -3302 3378 0
-3378 -3377 -3334 0
3378 3377 -3334 0
-3378 3377 3334 0
3378 -3377 3334 0
-654 -3302 3379 0
-654 -3377 3379 0
-3302 -3377 3379 0
654 3302 -3379 0
654 3377 -3379 0
3302 3377 -3379 0
-655 -3303 -3380 0
655 3303 -3380 0
-655 3303 3380 0
655 -3303 3380 0
-3380 -3379 -3335 0
3380 3379 -3335 0
-3380 3379 3335 0
3380 -3379 3335 0
-655 -3303 3381 0
-655 -3379 3381 0
-3303 -3379 3381 0
655 3303 -3381 0
655 3379 -3381 0
3303 3379 -3381 0
-656 -3304 -3382 0
656 3304 -3382 0
-656 3304 3382 0
656 -3304 3382 0
-3382 -3381 -3336 0
3382 3381 -3336 0
-3382 3381 3336 0
3382 -3381 3336 0
-656 -3304 3383 0
-656 -3381 3383 0
-3304 -3381 3383 0
656 3304 -3383 0
656 3381 -3383 0
3304 3381 -3383 0
-657 -3305 -3384 0
657 3305 -3384 0
-657 3305 3384 0
657 -3305 3384 0
-3384 -3383 -3337 0
3384 3383 -3337 0
-3384 3383 3337 0
3384 -3383 3337 0
-657 -3305 3385 0
-657 -3383 3385 0
-3305 -3383 3385 0
657 3305 -3385 0
657 3383 -3385 0
3305 3383 -3385 0
-658 -3306 -3386 0
658 3306 -3386 0
-658 3306 3386 0
658 -3306 3386 0
-3386 -3385 -3338 0
3386 3385 -3338 0
-3386 3385 3338 0
3386 -3385 3338 0
-658 -3306 3387 0
-658 -3385 3387 0
-3306 -3385 3387 0
658 3306 -3387 0
658 3385 -3387 0
3306 3385 -3387 0
-659 -3307 -3388 0
659 3307 -3388 0
-659 3307 3388 0
659 -3307 3388 0
-3388 -3387 -3339 0
3388 3387 -3339 0
-3388 3387 3339 0
3388 -3387 3339 0
-659 -3307 3389 0
-659 -3387 3389 0
-3307 -3387 3389 0
659 3307 -3389 0
659 3387 -3389 0
3307 3387 -3389 0
-660 -3308 -3390 0
660 3308 -3390 0
-660 3308 3390 0
660 -3308 3390 0
-3390 -3389 -3340 0
3390 3389 -3340 0
-3390 3389 3340 0
3390 -3389 3340 0
-660 -3308 3391 0
-660 -3389 3391 0
-3308 -3389 3391 0
660 3308 -3391 0
660 3389 -3391 0
3308 3389 -3391 0
-661 -3309 -3392 0
661 3309 -3392 0
-661 3309 3392 0
661 -3309 3392 0
-3392 -3391 -3341 0
3392 3391 -3341 0
-3392 3391 3341 0
3392 -3391 3341 0
-661 -3309 3393 0
-661 -3391 3393 0
-3309 -3391 3393 0
661 3309 -3393 0
661 3391 -3393 0
3309 3391 -3393 0
-662 -3310 -3394 0
662 3310 -3394 0
-662 3310 3394 0
662 -3310 3394 0
-3394 -3393 -3342 0
3394 3393 -3342 0
-3394 3393 3342 0
3394 -3393 3342 0
-662 -3310 3395 0
-662 -3393 3395 0
-3310 -3393 3395 0
662 3310 -3395 0
662 3393 -3395 0
3310 3393 -3395 0
-663 -3311 -3396 0
663 3311 -3396 0
-663 3311 3396 0
663 -3311 3396 0
-3396 -3395 -3343 0
3396 3395 -3343 0
-3396 3395 3343 0
3396 -3395 3343 0
-663 -3311 3397 0
-663 -3395 3397 0
-3311 -3395 3397 0
663 3311 -3397 0
663 3395 -3397 0
3311 3395 -3397 0
-664 -3312 -3398 0
664 3312 -3398 0
-664 3312 3398 0
664 -3312 3398 0
-3398 -3397 -3344 0
3398 3397 -3344 0
-3398 3397 3344 0
3398 -3397 3344 0
-664 -3312 3399 0
-664 -3397 3399 0
-3312 -3397 3399 0
664 3312 -3399 0
664 3397 -3399 0
3312 3397 -3399 0
-665 -3313 -3400 0
665 3313 -3400 0
-665 3313 3400 0
665 -3313 3400 0
-3400 -3399 -3345 0
3400 3399 -3345 0
-3400 3399 3345 0
3400 -3399 3345 0
-665 -3313 3401 0
-665 -3399 3401 0
-3313 -3399 3401 0
665 3313 -3401 0
665 3399 -3401 0
3313 3399 -3401 0
-666 -3314 -3402 0
666 3314 -3402 0
-666 3314 3402 0
666 -3314 3402 0
-3402 -3401 -3346 0
3402 3401 -3346 0
-3402 3401 3346 0
3402 -3401 3346 0
-666 -3314 3403 0
-666 -3401 3403 0
-3314 -3401 3403 0
666 3314 -3403 0
666 3401 -3403 0
3314 3401 -3403 0
-667 -3315 -3404 0
667 3315 -3404 0
-667 3315 3404 0
667 -3315 3404 0
-3404 -3403 -3347 0
3404 3403 -3347 0
-3404 3403 3347 0
3404 -3403 3347 0
-667 -3315 3405 0
-667 -3403 3405 0
-3315 -3403 3405 0
667 3315 -3405 0
667 3403 -3405 0
3315 3403 -3405 0
-668 -3316 -3406 0
668 3316 -3406 0
-668 3316 3406 0
668 -3316 3406 0
-3406 -3405 -3348 0
3406 3405 -3348 0
-3406 3405 3348 0
3406 -3405 3348 0
-668 -3316 3407 0
-668 -3405 3407 0
-3316 -3405 3407 0
668 3316 -3407 0
668 3405 -3407 0
3316 3405 -3407 0
-669 -3317 -3408 0
669 3317 -3408 0
-669 3317 3408 0
669 -3317 3408 0
-3408 -3407 -3349 0
3408 3407 -3349 0
-3408 3407 3349 0
3408 -3407 3349 0
-669 -3317 3409 0
-669 -3407 3409 0
-3317 -3407 3409 0
669 3317 -3409 0
669 3407 -3409 0
3317 3407 -3409 0
-670 -3318 -3410 0
670 3318 -3410 0
-670 3318 3410 0
670 -3318 3410 0
-3410 -3409 -3350 0
3410 3409 -3350 0
-3410 3409 3350 0
3410 -3409 3350 0
-670 -3318 3411 0
-670 -3409 3411 0
-3318 -3409 3411 0
670 3318 -3411 0
670 3409 -3411 0
3318 3409 -3411 0
-671 -3319 -3412 0
671 3319 -3412 0
-671 3319 3412 0
671 -3319 3412 0
-3412 -3411 -3351 0
3412 3411 -3351 0
-3412 3411 3351 0
3412 -3411 3351 0
-671 -3319 3413 0
-671 -3411 3413 0
-3319 -3411 3413 0
671 3319 -3413 0
671 3411 -3413 0
3319 3411 -3413 0
-672 -3320 -3414 0
672 3320 -3414 0
-672 3320 3414 0
672 -3320 3414 0
-3414 -3413 -3352 0
3414 3413 -3352 0
-3414 3413 3352 0
3414 -3413 3352 0
3415 0
-3416 0
-3417 0
3418 0
3419 0
-3420 0
-3421 0
-3422 0
3423 0
-3424 0
3425 0
3426 0
-3427 0
-3428 0
3429 0
3430 0
-3431 0
-3432 0
-3433 0
-3434 0
-3435 0
3436 0
3437 0
3438 0
3439 0
3440 0
-3441 0
3442 0
3443 0
-3444 0
3445 0
-3446 0
-673 -3415 -3447 0
673 3415 -3447 0
-673 3415 3447 0
673 -3415 3447 0
-673 -3415 3479 0
673 -3479 0
3415 -3479 0
-674 -3416 -3480 0
674 3416 -3480 0
-674 3416 3480 0
674 -3416 3480 0
-3480 -3479 -3448 0
3480 3479 -3448 0
-3480 3479 3448 0
3480 -3479 3448 0
-674 -3416 3481 0
-674 -3479 3481 0
-3416 -3479 3481 0
674 3416 -3481 0
674 3479 -3481 0
3416 3479 -3481 0
-675 -3417 -3482 0
675 3417 -3482 0
-675 3417 3482 0
675 -3417 3482 0
-3482 -3481 -3449 0
3482 3481 -3449 0
-3482 3481 3449 0
3482 -3481 3449 0
-675 -3417 3483 0
-675 -3481 3483 0
-3417 -3481 3483 0
675 3417 -3483 0
675 3481 -3483 0
3417 3481 -3483 0
-676 -3418 -3484 0
676 3418 -3484 0
-676 3418 3484 0
676 -3418 3484 0
-3484 -3483 -3450 0
3484 3483 -3450 0
-3484 3483 3450 0
3484 -3483 3450 0
-676 -3418 3485 0
-676 -3483 3485 0
-3418 -3483 3485 0
676 3418 -3485 0
676 3483 -3485 0
3418 3483 -3485 0
-677 -3419 -3486 0
677 3419 -3486 0
-677 3419 3486 0
677 -3419 3486 0
-3486 -3485 -3451 0
3486 3485 -3451 0
-3486 3485 3451 0
3486 -3485 3451 0
-677 -3419 3487 0
-677 -3485 3487 0
-3419 -3485 3487 0
677 3419 -3487 0
677 3485 -3487 0
3419 3485 -3487 0
-678 -3420 -3488 0
678 3420 -3488 0
-678 3420 3488 0
678 -3420 3488 0
-3488 -3487 -3452 0
3488 3487 -3452 0
-3488 3487 3452 0
3488 -3487 3452 0
-678 -3420 3489 0
-678 -3487 3489 0
-3420 -3487 3489 0
678 3420 -3489 0
678 3487 -3489 0
3420 3487 -3489 0
-679 -3421 -3490 0
679 3421 -3490 0
-679 3421 3490 0
679 -3421 3490 0
-3490 -3489 -3453 0
3490 3489 -3453 0
-3490 3489 3453 0
3490 -3489 3453 0
-679 -3421 3491 0
-679 -3489 3491 0
-3421 -3489 3491 0
679 3421 -3491 0
679 3489 -3491 0
3421 3489 -3491 0
-680 -3422 -3492 0
680 3422 -3492 0
-680 3422 3492 0
680 -3422 3492 0
-3492 -3491 -3454 0
3492 3491 -3454 0
-3492 3491 3454 0
3492 -3491 3454 0
-680 -3422 3493 0
-680 -3491 3493 0
-3422 -3491 3493 0
680 3422 -3493 0
680 3491 -3493 0
3422 3491 -3493 0
-681 -3423 -3494 0
681 3423 -3494 0
-681 3423 3494 0
681 -3423 3494 0
-3494 -3493 -3455 0
3494 3493 -3455 0
-3494 3493 3455 0
3494 -3493 3455 0
-681 -3423 3495 0
-681 -3493 3495 0
-3423 -3493 3495 0
681 3423 -3495 0
681 3493 -3495 0
3423 3493 -3495 0
-682 -3424 -3496 0
682 3424 -3496 0
-682 3424 3496 0
682 -3424 3496 0
-3496 -3495 -3456 0
3496 3495 -3456 0
-3496 3495 3456 0
3496 -3495 3456 0
-682 -3424 3497 0
-682 -3495 3497 0
-3424 -3495 3497 0
682 3424 -3497 0
682 3495 -3497 0
3424 3495 -3497 0
-683 -3425 -3498 0
683 3425 -3498 0
-683 3425 3498 0
683 -3425 3498 0
-3498 -3497 -3457 0
3498 3497 -3457 0
-3498 3497 3457 0
3498 -3497 3457 0
-683 -3425 3499 0
-683 -3497 3499 0
-3425 -3497 3499 0
683 3425 -3499 0
683 3497 -3499 0
3425 3497 -3499 0
-684 -3426 -3500 0
684 3426 -3500 0
-684 3426 3500 0
684 -3426 3500 0
-3500 -3499 -3458 0
3500 3499 -3458 0
-3500 3499 3458 0
3500 -3499 3458 0
-684 -3426 3501 0
-684 -3499 3501 0
-3426 -3499 3501 0
684 3426 -3501 0
684 3499 -3501 0
3426 3499 -3501 0
-685 -3427 -3502 0
685 3427 -3502 0
-685 3427 3502 0
685 -3427 3502 0
-3502 -3501 -3459 0
3502 3501 -3459 0
-3502 3501 3459 0
3502 -3501 3459 0
-685 -3427 3503 0
-685 -3501 3503 0
-3427 -3501 3503 0
685 3427 -3503 0
685 3501 -3503 0
3427 3501 -3503 0
-686 -3428 -3504 0
686 3428 -3504 0
-686 3428 3504 0
686 -3428 3504 0
-3504 -3503 -3460 0
3504 3503 -3460 0
-3504 3503 3460 0
3504 -3503 3460 0
-686 -3428 3505 0
-686 -3503 3505 0
-3428 -3503 3505 0
686 3428 -3505 0
686 3503 -3505 0
3428 3503 -3505 0
-687 -3429 -3506 0
687 3429 -3506 0
-687 3429 3506 0
687 -3429 3506 0
-3506 -3505 -3461 0
3506 3505 -3461 0
-3506 3505 3461 0
3506 -3505 3461 0
-687 -3429 3507 0
-687 -3505 3507 0
-3429 -3505 3507 0
687 3429 -3507 0
687 3505 -3507 0
3429 3505 -3507 0
-688 -3430 -3508 0
688 3430 -3508 0
-688 3430 3508 0
688 -3430 3508 0
-3508 -3507 -3462 0
3508 3507 -3462 0
-3508 3507 3462 0
3508 -3507 3462 0
-688 -3430 3509 0
-688 -3507 3509 0
-3430 -3507 3509 0
688 3430 -3509 0
688 3507 -3509 0
3430 3507 -3509 0
-689 -3431 -3510 0
689 3431 -3510 0
-689 3431 3510 0
689 -3431 3510 0
-3510 -3509 -3463 0
3510 3509 -3463 0
-3510 3509 3463 0
3510 -3509 3463 0
-689 -3431 3511 0
-689 -3509 3511 0
-3431 -3509 3511 0
689 3431 -3511 0
689 3509 -3511 0
3431 3509 -3511 0
-690 -3432 -3512 0
690 3432 -3512 0
-690 3432 3512 0
690 -3432 3512 0
-3512 -3511 -3464 0
3512 3511 -3464 0
-3512 3511 3464 0
3512 -3511 3464 0
-690 -3432 3513 0
-690 -3511 3513 0
-3432 -3511 3513 0
690 3432 -3513 0
690 3511 -3513 0
3432 3511 -3513 0
-691 -3433 -3514 0
691 3433 -3514 0
-691 3433 3514 0
691 -3433 3514 0
-3514 -3513 -3465 0
3514 3513 -3465 0
-3514 3513 3465 0
3514 -3513 3465 0
-691 -3433 3515 0
-691 -3513 3515 0
-3433 -3513 3515 0
691 3433 -3515 0
691 3513 -3515 0
3433 3513 -3515 0
-692 -3434 -3516 0
692 3434 -3516 0
-692 3434 3516 0
692 -3434 3516 0
-3516 -3515 -3466 0
3516 3515 -3466 0
-3516 3515 3466 0
3516 -3515 3466 0
-692 -3434 3517 0
-692 -3515 3517 0
-3434 -3515 3517 0
692 3434 -3517 0
692 3515 -3517 0
3434 3515 -3517 0
-693 -3435 -3518 0
693 3435 -3518 0
-693 3435 3518 0
693 -3435 3518 0
-3518 -3517 -3467 0
3518 3517 -3467 0
-3518 3517 3467 0
3518 -3517 3467 0
-693 -3435 3519 0
-693 -3517 3519 0
-3435 -3517 3519 0
693 3435 -3519 0
693 3517 -3519 0
3435 3517 -3519 0
-694 -3436 -3520 0
694 3436 -3520 0
-694 3436 3520 0
694 -3436 3520 0
-3520 -3519 -3468 0
3520 3519 -3468 0
-3520 3519 3468 0
3520 -3519 3468 0
-694 -3436 3521 0
-694 -3519 3521 0
-3436 -3519 3521 0
694 3436 -3521 0
694 3519 -3521 0
3436 3519 -3521 0
-695 -3437 -3522 0
695 3437 -3522 0
-695 3437 3522 0
695 -3437 3522 0
-3522 -3521 -3469 0
3522 3521 -3469 0
-3522 3521 3469 0
3522 -3521 3469 0
-695 -3437 3523 0
-695 -3521 3523 0
-3437 -3521 3523 0
695 3437 -3523 0
695 3521 -3523 0
3437 3521 -3523 0
-696 -3438 -3524 0
696 3438 -3524 0
-696 3438 3524 0
696 -3438 3524 0
-3524 -3523 -3470 0
3524 3523 -3470 0
-3524 3523 3470 0
3524 -3523 3470 0
-696 -3438 3525 0
-696 -3523 3525 0
-3438 -3523 3525 0
696 3438 -3525 0
696 3523 -3525 0
3438 3523 -3525 0
-697 -3439 -3526 0
697 3439 -3526 0
-697 3439 3526 0
697 -3439 3526 0
-3526 -3525 -3471 0
3526 3525 -3471 0
-3526 3525 3471 0
3526 -3525 3471 0
-697 -3439 3527 0
-697 -3525 3527 0
-3439 -3525 3527 0
697 3439 -3527 0
697 3525 -3527 0
3439 3525 -3527 0
-698 -3440 -3528 0
698 3440 -3528 0
-698 3440 3528 0
698 -3440 3528 0
-3528 -3527 -3472 0
3528 3527 -3472 0
-3528 3527 3472 0
3528 -3527 3472 0
-698 -3440 3529 0
-698 -3527 3529 0
-3440 -3527 3529 0
698 3440 -3529 0
698 3527 -3529 0
3440 3527 -3529 0
-699 -3441 -3530 0
699 3441 -3530 0
-699 3441 3530 0
699 -3441 3530 0
-3530 -3529 -3473 0
3530 3529 -3473 0
-3530 3529 3473 0
3530 -3529 3473 0
-699 -3441 3531 0
-699 -3529 3531 0
-3441 -3529 3531 0
699 3441 -3531 0
699 3529 -3531 0
3441 3529 -3531 0
-700 -3442 -3532 0
700 3442 -3532 0
-700 3442 3532 0
700 -3442 3532 0
-3532 -3531 -3474 0
3532 3531 -3474 0
-3532 3531 3474 0
3532 -3531 3474 0
-700 -3442 3533 0
-700 -3531 3533 0
-3442 -3531 3533 0
700 3442 -3533 0
700 3531 -3533 0
3442 3531 -3533 0
-701 -3443 -3534 0
701 3443 -3534 0
-701 3443 3534 0
701 -3443 3534 0
-3534 -3533 -3475 0
3534 3533 -3475 0
-3534 3533 3475 0
3534 -3533 3475 0
-701 -3443 3535 0
-701 -3533 3535 0
-3443 -3533 3535 0
701 3443 -3535 0
701 3533 -3535 0
3443 3533 -3535 0
-702 -3444 -3536 0
702 3444 -3536 0
-702 3444 3536 0
702 -3444 3536 0
-3536 -3535 -3476 0
3536 3535 -3476 0
-3536 3535 3476 0
3536 -3535 3476 0
-702 -3444 3537 0
-702 -3535 3537 0
-3444 -3535 3537 0
702 3444 -3537 0
702 3535 -3537 0
3444 3535 -3537 0
-703 -3445 -3538 0
703 3445 -3538 0
-703 3445 3538 0
703 -3445 3538 0
-3538 -3537 -3477 0
3538 3537 -3477 0
-3538 3537 3477 0
3538 -3537 3477 0
-703 -3445 3539 0
-703 -3537 3539 0
-3445 -3537 3539 0
703 3445 -3539 0
703 3537 -3539 0
3445 3537 -3539 0
-704 -3446 -3540 0
704 3446 -3540 0
-704 3446 3540 0
704 -3446 3540 0
-3540 -3539 -3478 0
3540 3539 -3478 0
-3540 3539 3478 0
3540 -3539 3478 0
-2565 0
-2566 0
-2567 0
2568 0
-2569 0
-2570 0
2571 0
2572 0
-2573 0
2574 0
2575 0
2576 0
2577 0
-2578 0
2579 0
-2580 0
-2581 0
-2582 0
2583 0
2584 0
2585 0
2586 0
-2587 0
2588 0
2589 0
2590 0
-2591 0
2592 0
2593 0
-2594 0
-2595 0
2596 0
-2691 0
2692 0
2693 0
-2694 0
-2695 0
2696 0
-2697 0
-2698 0
-2699 0
2700 0
-2701 0
2702 0
-2703 0
-2704 0
-2705 0
2706 0
2707 0
-2708 0
2709 0
-2710 0
2711 0
2712 0
-2713 0
2714 0
2715 0
2716 0
-2717 0
2718 0
-2719 0
-2720 0
-2721 0
-2722 0
2817 0
-2818 0
-2819 0
2820 0
2821 0
-2822 0
2823 0
2824 0
2825 0
-2826 0
-2827 0
2828 0
2829 0
-2830 0
2831 0
2832 0
-2833 0
-2834 0
-2835 0
2836 0
2837 0
2838 0
2839 0
-2840 0
-2841 0
2842 0
2843 0
-2844 0
-2845 0
2846 0
-2847 0
2848 0
2943 0
2944 0
2945 0
2946 0
2947 0
2948 0
-2949 0
2950 0
2951 0
2952 0
-2953 0
-2954 0
-2955 0
2956 0
-2957 0
2958 0
2959 0
2960 0
2961 0
-2962 0
2963 0
2964 0
-2965 0
2966 0
-2967 0
-2968 0
-2969 0
-2970 0
-2971 0
2972 0
2973 0
-2974 0
-3069 0
3070 0
3071 0
-3072 0
-3073 0
3074 0
3075 0
3076 0
3077 0
-3078 0
3079 0
3080 0
3081 0
-3082 0
3083 0
-3084 0
-3085 0
3086 0
-3087 0
3088 0
-3089 0
3090 0
3091 0
-3092 0
-3093 0
3094 0
3095 0
-3096 0
-3097 0
-3098 0
-3099 0
3100 0
-3195 0
3196 0
-3197 0
-3198 0
-3199 0
-3200 0
-3201 0
3202 0
-3203 0
3204 0
3205 0
3206 0
3207 0
-3208 0
-3209 0
3210 0
-3211 0
3212 0
-3213 0
-3214 0
3215 0
-3216 0
-3217 0
-3218 0
-3219 0
-3220 0
-3221 0
3222 0
-3223 0
-3224 0
-3225 0
3226 0
-3321 0
3322 0
-3323 0
3324 0
-3325 0
3326 0
-3327 0
-3328 0
-3329 0
-3330 0
3331 0
3332 0
-3333 0
3334 0
-3335 0
-3336 0
-3337 0
3338 0
-3339 0
-3340 0
3341 0
-3342 0
-3343 0
3344 0
-3345 0
-3346 0
-3347 0
-3348 0
3349 0
3350 0
3351 0
-3352 0
3447 0
-3448 0
3449 0
-3450 0
-3451 0
3452 0
-3453 0
3454 0
3455 0
-3456 0
3457 0
-3458 0
3459 0
3460 0
-3461 0
-3462 0
-3463 0
3464 0
3465 0
-3466 0
-3467 0
3468 0
3469 0
3470 0
-3471 0
3472 0
3473 0
-3474 0
3475 0
3476 0
3477 0
3478 0
