c SHA-256 Cryptanalysis CNF formula
p cnf 7950 31611
513 0
514 0
515 0
-516 0
-517 0
518 0
519 0
-520 0
-521 0
522 0
523 0
-524 0
-525 0
526 0
527 0
528 0
529 0
-530 0
-531 0
532 0
-533 0
-534 0
-535 0
-536 0
-537 0
538 0
-539 0
540 0
-541 0
542 0
543 0
-544 0
545 0
-546 0
547 0
-548 0
-549 0
-550 0
-551 0
552 0
-553 0
554 0
555 0
556 0
-557 0
558 0
-559 0
560 0
561 0
562 0
563 0
-564 0
-565 0
566 0
567 0
-568 0
569 0
570 0
-571 0
572 0
573 0
574 0
-575 0
576 0
-577 0
578 0
-579 0
-580 0
581 0
582 0
583 0
-584 0
585 0
586 0
-587 0
-588 0
589 0
590 0
591 0
592 0
-593 0
594 0
595 0
596 0
-597 0
598 0
599 0
-600 0
-601 0
-602 0
603 0
604 0
605 0
606 0
-607 0
-608 0
-609 0
610 0
-611 0
612 0
613 0
614 0
-615 0
-616 0
617 0
-618 0
619 0
-620 0
621 0
622 0
623 0
624 0
625 0
626 0
627 0
628 0
-629 0
-630 0
631 0
-632 0
633 0
-634 0
635 0
-636 0
-637 0
638 0
-639 0
640 0
641 0
642 0
643 0
644 0
645 0
646 0
647 0
-648 0
-649 0
650 0
-651 0
-652 0
653 0
-654 0
655 0
-656 0
-657 0
658 0
659 0
660 0
-661 0
-662 0
-663 0
-664 0
665 0
-666 0
-667 0
-668 0
669 0
-670 0
671 0
-672 0
-673 0
-674 0
675 0
676 0
-677 0
-678 0
-679 0
680 0
-681 0
-682 0
-683 0
684 0
-685 0
686 0
687 0
-688 0
689 0
-690 0
691 0
-692 0
-693 0
-694 0
-695 0
-696 0
697 0
698 0
-699 0
700 0
701 0
-702 0
-703 0
704 0
705 0
706 0
-707 0
708 0
-709 0
710 0
-711 0
712 0
713 0
-714 0
-715 0
716 0
717 0
-718 0
719 0
720 0
721 0
722 0
-723 0
-724 0
-725 0
-726 0
-727 0
728 0
729 0
730 0
731 0
732 0
733 0
-734 0
-735 0
-736 0
737 0
-738 0
-739 0
740 0
741 0
-742 0
-743 0
-744 0
745 0
-746 0
747 0
748 0
-749 0
-750 0
751 0
752 0
-753 0
-754 0
-755 0
-756 0
-757 0
758 0
759 0
760 0
761 0
762 0
-763 0
764 0
765 0
-766 0
767 0
-768 0
-647 -652 -801 0
647 652 -801 0
-647 652 801 0
647 -652 801 0
-801 -666 -769 0
801 666 -769 0
-801 666 769 0
801 -666 769 0
-648 -653 -802 0
648 653 -802 0
-648 653 802 0
648 -653 802 0
-802 -667 -770 0
802 667 -770 0
-802 667 770 0
802 -667 770 0
-649 -654 -803 0
649 654 -803 0
-649 654 803 0
649 -654 803 0
-803 -668 -771 0
803 668 -771 0
-803 668 771 0
803 -668 771 0
-650 -655 -804 0
650 655 -804 0
-650 655 804 0
650 -655 804 0
-804 -669 -772 0
804 669 -772 0
-804 669 772 0
804 -669 772 0
-651 -656 -805 0
651 656 -805 0
-651 656 805 0
651 -656 805 0
-805 -670 -773 0
805 670 -773 0
-805 670 773 0
805 -670 773 0
-652 -657 -806 0
652 657 -806 0
-652 657 806 0
652 -657 806 0
-806 -671 -774 0
806 671 -774 0
-806 671 774 0
806 -671 774 0
-653 -658 -807 0
653 658 -807 0
-653 658 807 0
653 -658 807 0
-807 -672 -775 0
807 672 -775 0
-807 672 775 0
807 -672 775 0
-654 -659 -808 0
654 659 -808 0
-654 659 808 0
654 -659 808 0
-808 -641 -776 0
808 641 -776 0
-808 641 776 0
808 -641 776 0
-655 -660 -809 0
655 660 -809 0
-655 660 809 0
655 -660 809 0
-809 -642 -777 0
809 642 -777 0
-809 642 777 0
809 -642 777 0
-656 -661 -810 0
656 661 -810 0
-656 661 810 0
656 -661 810 0
-810 -643 -778 0
810 643 -778 0
-810 643 778 0
810 -643 778 0
-657 -662 -811 0
657 662 -811 0
-657 662 811 0
657 -662 811 0
-811 -644 -779 0
811 644 -779 0
-811 644 779 0
811 -644 779 0
-658 -663 -812 0
658 663 -812 0
-658 663 812 0
658 -663 812 0
-812 -645 -780 0
812 645 -780 0
-812 645 780 0
812 -645 780 0
-659 -664 -813 0
659 664 -813 0
-659 664 813 0
659 -664 813 0
-813 -646 -781 0
813 646 -781 0
-813 646 781 0
813 -646 781 0
-660 -665 -814 0
660 665 -814 0
-660 665 814 0
660 -665 814 0
-814 -647 -782 0
814 647 -782 0
-814 647 782 0
814 -647 782 0
-661 -666 -815 0
661 666 -815 0
-661 666 815 0
661 -666 815 0
-815 -648 -783 0
815 648 -783 0
-815 648 783 0
815 -648 783 0
-662 -667 -816 0
662 667 -816 0
-662 667 816 0
662 -667 816 0
-816 -649 -784 0
816 649 -784 0
-816 649 784 0
816 -649 784 0
-663 -668 -817 0
663 668 -817 0
-663 668 817 0
663 -668 817 0
-817 -650 -785 0
817 650 -785 0
-817 650 785 0
817 -650 785 0
-664 -669 -818 0
664 669 -818 0
-664 669 818 0
664 -669 818 0
-818 -651 -786 0
818 651 -786 0
-818 651 786 0
818 -651 786 0
-665 -670 -819 0
665 670 -819 0
-665 670 819 0
665 -670 819 0
-819 -652 -787 0
819 652 -787 0
-819 652 787 0
819 -652 787 0
-666 -671 -820 0
666 671 -820 0
-666 671 820 0
666 -671 820 0
-820 -653 -788 0
820 653 -788 0
-820 653 788 0
820 -653 788 0
-667 -672 -821 0
667 672 -821 0
-667 672 821 0
667 -672 821 0
-821 -654 -789 0
821 654 -789 0
-821 654 789 0
821 -654 789 0
-668 -641 -822 0
668 641 -822 0
-668 641 822 0
668 -641 822 0
-822 -655 -790 0
822 655 -790 0
-822 655 790 0
822 -655 790 0
-669 -642 -823 0
669 642 -823 0
-669 642 823 0
669 -642 823 0
-823 -656 -791 0
823 656 -791 0
-823 656 791 0
823 -656 791 0
-670 -643 -824 0
670 643 -824 0
-670 643 824 0
670 -643 824 0
-824 -657 -792 0
824 657 -792 0
-824 657 792 0
824 -657 792 0
-671 -644 -825 0
671 644 -825 0
-671 644 825 0
671 -644 825 0
-825 -658 -793 0
825 658 -793 0
-825 658 793 0
825 -658 793 0
-672 -645 -826 0
672 645 -826 0
-672 645 826 0
672 -645 826 0
-826 -659 -794 0
826 659 -794 0
-826 659 794 0
826 -659 794 0
-641 -646 -827 0
641 646 -827 0
-641 646 827 0
641 -646 827 0
-827 -660 -795 0
827 660 -795 0
-827 660 795 0
827 -660 795 0
-642 -647 -828 0
642 647 -828 0
-642 647 828 0
642 -647 828 0
-828 -661 -796 0
828 661 -796 0
-828 661 796 0
828 -661 796 0
-643 -648 -829 0
643 648 -829 0
-643 648 829 0
643 -648 829 0
-829 -662 -797 0
829 662 -797 0
-829 662 797 0
829 -662 797 0
-644 -649 -830 0
644 649 -830 0
-644 649 830 0
644 -649 830 0
-830 -663 -798 0
830 663 -798 0
-830 663 798 0
830 -663 798 0
-645 -650 -831 0
645 650 -831 0
-645 650 831 0
645 -650 831 0
-831 -664 -799 0
831 664 -799 0
-831 664 799 0
831 -664 799 0
-646 -651 -832 0
646 651 -832 0
-646 651 832 0
646 -651 832 0
-832 -665 -800 0
832 665 -800 0
-832 665 800 0
832 -665 800 0
-641 -673 833 0
-641 673 -833 0
641 -705 833 0
641 705 -833 0
-642 -674 834 0
-642 674 -834 0
642 -706 834 0
642 706 -834 0
-643 -675 835 0
-643 675 -835 0
643 -707 835 0
643 707 -835 0
-644 -676 836 0
-644 676 -836 0
644 -708 836 0
644 708 -836 0
-645 -677 837 0
-645 677 -837 0
645 -709 837 0
645 709 -837 0
-646 -678 838 0
-646 678 -838 0
646 -710 838 0
646 710 -838 0
-647 -679 839 0
-647 679 -839 0
647 -711 839 0
647 711 -839 0
-648 -680 840 0
-648 680 -840 0
648 -712 840 0
648 712 -840 0
-649 -681 841 0
-649 681 -841 0
649 -713 841 0
649 713 -841 0
-650 -682 842 0
-650 682 -842 0
650 -714 842 0
650 714 -842 0
-651 -683 843 0
-651 683 -843 0
651 -715 843 0
651 715 -843 0
-652 -684 844 0
-652 684 -844 0
652 -716 844 0
652 716 -844 0
-653 -685 845 0
-653 685 -845 0
653 -717 845 0
653 717 -845 0
-654 -686 846 0
-654 686 -846 0
654 -718 846 0
654 718 -846 0
-655 -687 847 0
-655 687 -847 0
655 -719 847 0
655 719 -847 0
-656 -688 848 0
-656 688 -848 0
656 -720 848 0
656 720 -848 0
-657 -689 849 0
-657 689 -849 0
657 -721 849 0
657 721 -849 0
-658 -690 850 0
-658 690 -850 0
658 -722 850 0
658 722 -850 0
-659 -691 851 0
-659 691 -851 0
659 -723 851 0
659 723 -851 0
-660 -692 852 0
-660 692 -852 0
660 -724 852 0
660 724 -852 0
-661 -693 853 0
-661 693 -853 0
661 -725 853 0
661 725 -853 0
-662 -694 854 0
-662 694 -854 0
662 -726 854 0
662 726 -854 0
-663 -695 855 0
-663 695 -855 0
663 -727 855 0
663 727 -855 0
-664 -696 856 0
-664 696 -856 0
664 -728 856 0
664 728 -856 0
-665 -697 857 0
-665 697 -857 0
665 -729 857 0
665 729 -857 0
-666 -698 858 0
-666 698 -858 0
666 -730 858 0
666 730 -858 0
-667 -699 859 0
-667 699 -859 0
667 -731 859 0
667 731 -859 0
-668 -700 860 0
-668 700 -860 0
668 -732 860 0
668 732 -860 0
-669 -701 861 0
-669 701 -861 0
669 -733 861 0
669 733 -861 0
-670 -702 862 0
-670 702 -862 0
670 -734 862 0
670 734 -862 0
-671 -703 863 0
-671 703 -863 0
671 -735 863 0
671 735 -863 0
-672 -704 864 0
-672 704 -864 0
672 -736 864 0
672 736 -864 0
-737 -769 -865 0
737 769 -865 0
-737 769 865 0
737 -769 865 0
-737 -769 897 0
737 -897 0
769 -897 0
-738 -770 -898 0
738 770 -898 0
-738 770 898 0
738 -770 898 0
-898 -897 -866 0
898 897 -866 0
-898 897 866 0
898 -897 866 0
-738 -770 899 0
-738 -897 899 0
-770 -897 899 0
738 770 -899 0
738 897 -899 0
770 897 -899 0
-739 -771 -900 0
739 771 -900 0
-739 771 900 0
739 -771 900 0
-900 -899 -867 0
900 899 -867 0
-900 899 867 0
900 -899 867 0
-739 -771 901 0
-739 -899 901 0
-771 -899 901 0
739 771 -901 0
739 899 -901 0
771 899 -901 0
-740 -772 -902 0
740 772 -902 0
-740 772 902 0
740 -772 902 0
-902 -901 -868 0
902 901 -868 0
-902 901 868 0
902 -901 868 0
-740 -772 903 0
-740 -901 903 0
-772 -901 903 0
740 772 -903 0
740 901 -903 0
772 901 -903 0
-741 -773 -904 0
741 773 -904 0
-741 773 904 0
741 -773 904 0
-904 -903 -869 0
904 903 -869 0
-904 903 869 0
904 -903 869 0
-741 -773 905 0
-741 -903 905 0
-773 -903 905 0
741 773 -905 0
741 903 -905 0
773 903 -905 0
-742 -774 -906 0
742 774 -906 0
-742 774 906 0
742 -774 906 0
-906 -905 -870 0
906 905 -870 0
-906 905 870 0
906 -905 870 0
-742 -774 907 0
-742 -905 907 0
-774 -905 907 0
742 774 -907 0
742 905 -907 0
774 905 -907 0
-743 -775 -908 0
743 775 -908 0
-743 775 908 0
743 -775 908 0
-908 -907 -871 0
908 907 -871 0
-908 907 871 0
908 -907 871 0
-743 -775 909 0
-743 -907 909 0
-775 -907 909 0
743 775 -909 0
743 907 -909 0
775 907 -909 0
-744 -776 -910 0
744 776 -910 0
-744 776 910 0
744 -776 910 0
-910 -909 -872 0
910 909 -872 0
-910 909 872 0
910 -909 872 0
-744 -776 911 0
-744 -909 911 0
-776 -909 911 0
744 776 -911 0
744 909 -911 0
776 909 -911 0
-745 -777 -912 0
745 777 -912 0
-745 777 912 0
745 -777 912 0
-912 -911 -873 0
912 911 -873 0
-912 911 873 0
912 -911 873 0
-745 -777 913 0
-745 -911 913 0
-777 -911 913 0
745 777 -913 0
745 911 -913 0
777 911 -913 0
-746 -778 -914 0
746 778 -914 0
-746 778 914 0
746 -778 914 0
-914 -913 -874 0
914 913 -874 0
-914 913 874 0
914 -913 874 0
-746 -778 915 0
-746 -913 915 0
-778 -913 915 0
746 778 -915 0
746 913 -915 0
778 913 -915 0
-747 -779 -916 0
747 779 -916 0
-747 779 916 0
747 -779 916 0
-916 -915 -875 0
916 915 -875 0
-916 915 875 0
916 -915 875 0
-747 -779 917 0
-747 -915 917 0
-779 -915 917 0
747 779 -917 0
747 915 -917 0
779 915 -917 0
-748 -780 -918 0
748 780 -918 0
-748 780 918 0
748 -780 918 0
-918 -917 -876 0
918 917 -876 0
-918 917 876 0
918 -917 876 0
-748 -780 919 0
-748 -917 919 0
-780 -917 919 0
748 780 -919 0
748 917 -919 0
780 917 -919 0
-749 -781 -920 0
749 781 -920 0
-749 781 920 0
749 -781 920 0
-920 -919 -877 0
920 919 -877 0
-920 919 877 0
920 -919 877 0
-749 -781 921 0
-749 -919 921 0
-781 -919 921 0
749 781 -921 0
749 919 -921 0
781 919 -921 0
-750 -782 -922 0
750 782 -922 0
-750 782 922 0
750 -782 922 0
-922 -921 -878 0
922 921 -878 0
-922 921 878 0
922 -921 878 0
-750 -782 923 0
-750 -921 923 0
-782 -921 923 0
750 782 -923 0
750 921 -923 0
782 921 -923 0
-751 -783 -924 0
751 783 -924 0
-751 783 924 0
751 -783 924 0
-924 -923 -879 0
924 923 -879 0
-924 923 879 0
924 -923 879 0
-751 -783 925 0
-751 -923 925 0
-783 -923 925 0
751 783 -925 0
751 923 -925 0
783 923 -925 0
-752 -784 -926 0
752 784 -926 0
-752 784 926 0
752 -784 926 0
-926 -925 -880 0
926 925 -880 0
-926 925 880 0
926 -925 880 0
-752 -784 927 0
-752 -925 927 0
-784 -925 927 0
752 784 -927 0
752 925 -927 0
784 925 -927 0
-753 -785 -928 0
753 785 -928 0
-753 785 928 0
753 -785 928 0
-928 -927 -881 0
928 927 -881 0
-928 927 881 0
928 -927 881 0
-753 -785 929 0
-753 -927 929 0
-785 -927 929 0
753 785 -929 0
753 927 -929 0
785 927 -929 0
-754 -786 -930 0
754 786 -930 0
-754 786 930 0
754 -786 930 0
-930 -929 -882 0
930 929 -882 0
-930 929 882 0
930 -929 882 0
-754 -786 931 0
-754 -929 931 0
-786 -929 931 0
754 786 -931 0
754 929 -931 0
786 929 -931 0
-755 -787 -932 0
755 787 -932 0
-755 787 932 0
755 -787 932 0
-932 -931 -883 0
932 931 -883 0
-932 931 883 0
932 -931 883 0
-755 -787 933 0
-755 -931 933 0
-787 -931 933 0
755 787 -933 0
755 931 -933 0
787 931 -933 0
-756 -788 -934 0
756 788 -934 0
-756 788 934 0
756 -788 934 0
-934 -933 -884 0
934 933 -884 0
-934 933 884 0
934 -933 884 0
-756 -788 935 0
-756 -933 935 0
-788 -933 935 0
756 788 -935 0
756 933 -935 0
788 933 -935 0
-757 -789 -936 0
757 789 -936 0
-757 789 936 0
757 -789 936 0
-936 -935 -885 0
936 935 -885 0
-936 935 885 0
936 -935 885 0
-757 -789 937 0
-757 -935 937 0
-789 -935 937 0
757 789 -937 0
757 935 -937 0
789 935 -937 0
-758 -790 -938 0
758 790 -938 0
-758 790 938 0
758 -790 938 0
-938 -937 -886 0
938 937 -886 0
-938 937 886 0
938 -937 886 0
-758 -790 939 0
-758 -937 939 0
-790 -937 939 0
758 790 -939 0
758 937 -939 0
790 937 -939 0
-759 -791 -940 0
759 791 -940 0
-759 791 940 0
759 -791 940 0
-940 -939 -887 0
940 939 -887 0
-940 939 887 0
940 -939 887 0
-759 -791 941 0
-759 -939 941 0
-791 -939 941 0
759 791 -941 0
759 939 -941 0
791 939 -941 0
-760 -792 -942 0
760 792 -942 0
-760 792 942 0
760 -792 942 0
-942 -941 -888 0
942 941 -888 0
-942 941 888 0
942 -941 888 0
-760 -792 943 0
-760 -941 943 0
-792 -941 943 0
760 792 -943 0
760 941 -943 0
792 941 -943 0
-761 -793 -944 0
761 793 -944 0
-761 793 944 0
761 -793 944 0
-944 -943 -889 0
944 943 -889 0
-944 943 889 0
944 -943 889 0
-761 -793 945 0
-761 -943 945 0
-793 -943 945 0
761 793 -945 0
761 943 -945 0
793 943 -945 0
-762 -794 -946 0
762 794 -946 0
-762 794 946 0
762 -794 946 0
-946 -945 -890 0
946 945 -890 0
-946 945 890 0
946 -945 890 0
-762 -794 947 0
-762 -945 947 0
-794 -945 947 0
762 794 -947 0
762 945 -947 0
794 945 -947 0
-763 -795 -948 0
763 795 -948 0
-763 795 948 0
763 -795 948 0
-948 -947 -891 0
948 947 -891 0
-948 947 891 0
948 -947 891 0
-763 -795 949 0
-763 -947 949 0
-795 -947 949 0
763 795 -949 0
763 947 -949 0
795 947 -949 0
-764 -796 -950 0
764 796 -950 0
-764 796 950 0
764 -796 950 0
-950 -949 -892 0
950 949 -892 0
-950 949 892 0
950 -949 892 0
-764 -796 951 0
-764 -949 951 0
-796 -949 951 0
764 796 -951 0
764 949 -951 0
796 949 -951 0
-765 -797 -952 0
765 797 -952 0
-765 797 952 0
765 -797 952 0
-952 -951 -893 0
952 951 -893 0
-952 951 893 0
952 -951 893 0
-765 -797 953 0
-765 -951 953 0
-797 -951 953 0
765 797 -953 0
765 951 -953 0
797 951 -953 0
-766 -798 -954 0
766 798 -954 0
-766 798 954 0
766 -798 954 0
-954 -953 -894 0
954 953 -894 0
-954 953 894 0
954 -953 894 0
-766 -798 955 0
-766 -953 955 0
-798 -953 955 0
766 798 -955 0
766 953 -955 0
798 953 -955 0
-767 -799 -956 0
767 799 -956 0
-767 799 956 0
767 -799 956 0
-956 -955 -895 0
956 955 -895 0
-956 955 895 0
956 -955 895 0
-767 -799 957 0
-767 -955 957 0
-799 -955 957 0
767 799 -957 0
767 955 -957 0
799 955 -957 0
-768 -800 -958 0
768 800 -958 0
-768 800 958 0
768 -800 958 0
-958 -957 -896 0
958 957 -896 0
-958 957 896 0
958 -957 896 0
-833 -1 -959 0
833 1 -959 0
-833 1 959 0
833 -1 959 0
-833 -1 991 0
833 -991 0
1 -991 0
-834 -2 -992 0
834 2 -992 0
-834 2 992 0
834 -2 992 0
-992 -991 -960 0
992 991 -960 0
-992 991 960 0
992 -991 960 0
-834 -2 993 0
-834 -991 993 0
-2 -991 993 0
834 2 -993 0
834 991 -993 0
2 991 -993 0
-835 -3 -994 0
835 3 -994 0
-835 3 994 0
835 -3 994 0
-994 -993 -961 0
994 993 -961 0
-994 993 961 0
994 -993 961 0
-835 -3 995 0
-835 -993 995 0
-3 -993 995 0
835 3 -995 0
835 993 -995 0
3 993 -995 0
-836 -4 -996 0
836 4 -996 0
-836 4 996 0
836 -4 996 0
-996 -995 -962 0
996 995 -962 0
-996 995 962 0
996 -995 962 0
-836 -4 997 0
-836 -995 997 0
-4 -995 997 0
836 4 -997 0
836 995 -997 0
4 995 -997 0
-837 -5 -998 0
837 5 -998 0
-837 5 998 0
837 -5 998 0
-998 -997 -963 0
998 997 -963 0
-998 997 963 0
998 -997 963 0
-837 -5 999 0
-837 -997 999 0
-5 -997 999 0
837 5 -999 0
837 997 -999 0
5 997 -999 0
-838 -6 -1000 0
838 6 -1000 0
-838 6 1000 0
838 -6 1000 0
-1000 -999 -964 0
1000 999 -964 0
-1000 999 964 0
1000 -999 964 0
-838 -6 1001 0
-838 -999 1001 0
-6 -999 1001 0
838 6 -1001 0
838 999 -1001 0
6 999 -1001 0
-839 -7 -1002 0
839 7 -1002 0
-839 7 1002 0
839 -7 1002 0
-1002 -1001 -965 0
1002 1001 -965 0
-1002 1001 965 0
1002 -1001 965 0
-839 -7 1003 0
-839 -1001 1003 0
-7 -1001 1003 0
839 7 -1003 0
839 1001 -1003 0
7 1001 -1003 0
-840 -8 -1004 0
840 8 -1004 0
-840 8 1004 0
840 -8 1004 0
-1004 -1003 -966 0
1004 1003 -966 0
-1004 1003 966 0
1004 -1003 966 0
-840 -8 1005 0
-840 -1003 1005 0
-8 -1003 1005 0
840 8 -1005 0
840 1003 -1005 0
8 1003 -1005 0
-841 -9 -1006 0
841 9 -1006 0
-841 9 1006 0
841 -9 1006 0
-1006 -1005 -967 0
1006 1005 -967 0
-1006 1005 967 0
1006 -1005 967 0
-841 -9 1007 0
-841 -1005 1007 0
-9 -1005 1007 0
841 9 -1007 0
841 1005 -1007 0
9 1005 -1007 0
-842 -10 -1008 0
842 10 -1008 0
-842 10 1008 0
842 -10 1008 0
-1008 -1007 -968 0
1008 1007 -968 0
-1008 1007 968 0
1008 -1007 968 0
-842 -10 1009 0
-842 -1007 1009 0
-10 -1007 1009 0
842 10 -1009 0
842 1007 -1009 0
10 1007 -1009 0
-843 -11 -1010 0
843 11 -1010 0
-843 11 1010 0
843 -11 1010 0
-1010 -1009 -969 0
1010 1009 -969 0
-1010 1009 969 0
1010 -1009 969 0
-843 -11 1011 0
-843 -1009 1011 0
-11 -1009 1011 0
843 11 -1011 0
843 1009 -1011 0
11 1009 -1011 0
-844 -12 -1012 0
844 12 -1012 0
-844 12 1012 0
844 -12 1012 0
-1012 -1011 -970 0
1012 1011 -970 0
-1012 1011 970 0
1012 -1011 970 0
-844 -12 1013 0
-844 -1011 1013 0
-12 -1011 1013 0
844 12 -1013 0
844 1011 -1013 0
12 1011 -1013 0
-845 -13 -1014 0
845 13 -1014 0
-845 13 1014 0
845 -13 1014 0
-1014 -1013 -971 0
1014 1013 -971 0
-1014 1013 971 0
1014 -1013 971 0
-845 -13 1015 0
-845 -1013 1015 0
-13 -1013 1015 0
845 13 -1015 0
845 1013 -1015 0
13 1013 -1015 0
-846 -14 -1016 0
846 14 -1016 0
-846 14 1016 0
846 -14 1016 0
-1016 -1015 -972 0
1016 1015 -972 0
-1016 1015 972 0
1016 -1015 972 0
-846 -14 1017 0
-846 -1015 1017 0
-14 -1015 1017 0
846 14 -1017 0
846 1015 -1017 0
14 1015 -1017 0
-847 -15 -1018 0
847 15 -1018 0
-847 15 1018 0
847 -15 1018 0
-1018 -1017 -973 0
1018 1017 -973 0
-1018 1017 973 0
1018 -1017 973 0
-847 -15 1019 0
-847 -1017 1019 0
-15 -1017 1019 0
847 15 -1019 0
847 1017 -1019 0
15 1017 -1019 0
-848 -16 -1020 0
848 16 -1020 0
-848 16 1020 0
848 -16 1020 0
-1020 -1019 -974 0
1020 1019 -974 0
-1020 1019 974 0
1020 -1019 974 0
-848 -16 1021 0
-848 -1019 1021 0
-16 -1019 1021 0
848 16 -1021 0
848 1019 -1021 0
16 1019 -1021 0
-849 -17 -1022 0
849 17 -1022 0
-849 17 1022 0
849 -17 1022 0
-1022 -1021 -975 0
1022 1021 -975 0
-1022 1021 975 0
1022 -1021 975 0
-849 -17 1023 0
-849 -1021 1023 0
-17 -1021 1023 0
849 17 -1023 0
849 1021 -1023 0
17 1021 -1023 0
-850 -18 -1024 0
850 18 -1024 0
-850 18 1024 0
850 -18 1024 0
-1024 -1023 -976 0
1024 1023 -976 0
-1024 1023 976 0
1024 -1023 976 0
-850 -18 1025 0
-850 -1023 1025 0
-18 -1023 1025 0
850 18 -1025 0
850 1023 -1025 0
18 1023 -1025 0
-851 -19 -1026 0
851 19 -1026 0
-851 19 1026 0
851 -19 1026 0
-1026 -1025 -977 0
1026 1025 -977 0
-1026 1025 977 0
1026 -1025 977 0
-851 -19 1027 0
-851 -1025 1027 0
-19 -1025 1027 0
851 19 -1027 0
851 1025 -1027 0
19 1025 -1027 0
-852 -20 -1028 0
852 20 -1028 0
-852 20 1028 0
852 -20 1028 0
-1028 -1027 -978 0
1028 1027 -978 0
-1028 1027 978 0
1028 -1027 978 0
-852 -20 1029 0
-852 -1027 1029 0
-20 -1027 1029 0
852 20 -1029 0
852 1027 -1029 0
20 1027 -1029 0
-853 -21 -1030 0
853 21 -1030 0
-853 21 1030 0
853 -21 1030 0
-1030 -1029 -979 0
1030 1029 -979 0
-1030 1029 979 0
1030 -1029 979 0
-853 -21 1031 0
-853 -1029 1031 0
-21 -1029 1031 0
853 21 -1031 0
853 1029 -1031 0
21 1029 -1031 0
-854 -22 -1032 0
854 22 -1032 0
-854 22 1032 0
854 -22 1032 0
-1032 -1031 -980 0
1032 1031 -980 0
-1032 1031 980 0
1032 -1031 980 0
-854 -22 1033 0
-854 -1031 1033 0
-22 -1031 1033 0
854 22 -1033 0
854 1031 -1033 0
22 1031 -1033 0
-855 -23 -1034 0
855 23 -1034 0
-855 23 1034 0
855 -23 1034 0
-1034 -1033 -981 0
1034 1033 -981 0
-1034 1033 981 0
1034 -1033 981 0
-855 -23 1035 0
-855 -1033 1035 0
-23 -1033 1035 0
855 23 -1035 0
855 1033 -1035 0
23 1033 -1035 0
-856 -24 -1036 0
856 24 -1036 0
-856 24 1036 0
856 -24 1036 0
-1036 -1035 -982 0
1036 1035 -982 0
-1036 1035 982 0
1036 -1035 982 0
-856 -24 1037 0
-856 -1035 1037 0
-24 -1035 1037 0
856 24 -1037 0
856 1035 -1037 0
24 1035 -1037 0
-857 -25 -1038 0
857 25 -1038 0
-857 25 1038 0
857 -25 1038 0
-1038 -1037 -983 0
1038 1037 -983 0
-1038 1037 983 0
1038 -1037 983 0
-857 -25 1039 0
-857 -1037 1039 0
-25 -1037 1039 0
857 25 -1039 0
857 1037 -1039 0
25 1037 -1039 0
-858 -26 -1040 0
858 26 -1040 0
-858 26 1040 0
858 -26 1040 0
-1040 -1039 -984 0
1040 1039 -984 0
-1040 1039 984 0
1040 -1039 984 0
-858 -26 1041 0
-858 -1039 1041 0
-26 -1039 1041 0
858 26 -1041 0
858 1039 -1041 0
26 1039 -1041 0
-859 -27 -1042 0
859 27 -1042 0
-859 27 1042 0
859 -27 1042 0
-1042 -1041 -985 0
1042 1041 -985 0
-1042 1041 985 0
1042 -1041 985 0
-859 -27 1043 0
-859 -1041 1043 0
-27 -1041 1043 0
859 27 -1043 0
859 1041 -1043 0
27 1041 -1043 0
-860 -28 -1044 0
860 28 -1044 0
-860 28 1044 0
860 -28 1044 0
-1044 -1043 -986 0
1044 1043 -986 0
-1044 1043 986 0
1044 -1043 986 0
-860 -28 1045 0
-860 -1043 1045 0
-28 -1043 1045 0
860 28 -1045 0
860 1043 -1045 0
28 1043 -1045 0
-861 -29 -1046 0
861 29 -1046 0
-861 29 1046 0
861 -29 1046 0
-1046 -1045 -987 0
1046 1045 -987 0
-1046 1045 987 0
1046 -1045 987 0
-861 -29 1047 0
-861 -1045 1047 0
-29 -1045 1047 0
861 29 -1047 0
861 1045 -1047 0
29 1045 -1047 0
-862 -30 -1048 0
862 30 -1048 0
-862 30 1048 0
862 -30 1048 0
-1048 -1047 -988 0
1048 1047 -988 0
-1048 1047 988 0
1048 -1047 988 0
-862 -30 1049 0
-862 -1047 1049 0
-30 -1047 1049 0
862 30 -1049 0
862 1047 -1049 0
30 1047 -1049 0
-863 -31 -1050 0
863 31 -1050 0
-863 31 1050 0
863 -31 1050 0
-1050 -1049 -989 0
1050 1049 -989 0
-1050 1049 989 0
1050 -1049 989 0
-863 -31 1051 0
-863 -1049 1051 0
-31 -1049 1051 0
863 31 -1051 0
863 1049 -1051 0
31 1049 -1051 0
-864 -32 -1052 0
864 32 -1052 0
-864 32 1052 0
864 -32 1052 0
-1052 -1051 -990 0
1052 1051 -990 0
-1052 1051 990 0
1052 -1051 990 0
-1053 0
-1054 0
-1055 0
1056 0
1057 0
-1058 0
-1059 0
1060 0
1061 0
1062 0
1063 0
1064 0
-1065 0
1066 0
-1067 0
-1068 0
-1069 0
1070 0
-1071 0
1072 0
-1073 0
-1074 0
-1075 0
1076 0
-1077 0
1078 0
-1079 0
-1080 0
-1081 0
-1082 0
1083 0
-1084 0
-865 -1053 -1085 0
865 1053 -1085 0
-865 1053 1085 0
865 -1053 1085 0
-865 -1053 1117 0
865 -1117 0
1053 -1117 0
-866 -1054 -1118 0
866 1054 -1118 0
-866 1054 1118 0
866 -1054 1118 0
-1118 -1117 -1086 0
1118 1117 -1086 0
-1118 1117 1086 0
1118 -1117 1086 0
-866 -1054 1119 0
-866 -1117 1119 0
-1054 -1117 1119 0
866 1054 -1119 0
866 1117 -1119 0
1054 1117 -1119 0
-867 -1055 -1120 0
867 1055 -1120 0
-867 1055 1120 0
867 -1055 1120 0
-1120 -1119 -1087 0
1120 1119 -1087 0
-1120 1119 1087 0
1120 -1119 1087 0
-867 -1055 1121 0
-867 -1119 1121 0
-1055 -1119 1121 0
867 1055 -1121 0
867 1119 -1121 0
1055 1119 -1121 0
-868 -1056 -1122 0
868 1056 -1122 0
-868 1056 1122 0
868 -1056 1122 0
-1122 -1121 -1088 0
1122 1121 -1088 0
-1122 1121 1088 0
1122 -1121 1088 0
-868 -1056 1123 0
-868 -1121 1123 0
-1056 -1121 1123 0
868 1056 -1123 0
868 1121 -1123 0
1056 1121 -1123 0
-869 -1057 -1124 0
869 1057 -1124 0
-869 1057 1124 0
869 -1057 1124 0
-1124 -1123 -1089 0
1124 1123 -1089 0
-1124 1123 1089 0
1124 -1123 1089 0
-869 -1057 1125 0
-869 -1123 1125 0
-1057 -1123 1125 0
869 1057 -1125 0
869 1123 -1125 0
1057 1123 -1125 0
-870 -1058 -1126 0
870 1058 -1126 0
-870 1058 1126 0
870 -1058 1126 0
-1126 -1125 -1090 0
1126 1125 -1090 0
-1126 1125 1090 0
1126 -1125 1090 0
-870 -1058 1127 0
-870 -1125 1127 0
-1058 -1125 1127 0
870 1058 -1127 0
870 1125 -1127 0
1058 1125 -1127 0
-871 -1059 -1128 0
871 1059 -1128 0
-871 1059 1128 0
871 -1059 1128 0
-1128 -1127 -1091 0
1128 1127 -1091 0
-1128 1127 1091 0
1128 -1127 1091 0
-871 -1059 1129 0
-871 -1127 1129 0
-1059 -1127 1129 0
871 1059 -1129 0
871 1127 -1129 0
1059 1127 -1129 0
-872 -1060 -1130 0
872 1060 -1130 0
-872 1060 1130 0
872 -1060 1130 0
-1130 -1129 -1092 0
1130 1129 -1092 0
-1130 1129 1092 0
1130 -1129 1092 0
-872 -1060 1131 0
-872 -1129 1131 0
-1060 -1129 1131 0
872 1060 -1131 0
872 1129 -1131 0
1060 1129 -1131 0
-873 -1061 -1132 0
873 1061 -1132 0
-873 1061 1132 0
873 -1061 1132 0
-1132 -1131 -1093 0
1132 1131 -1093 0
-1132 1131 1093 0
1132 -1131 1093 0
-873 -1061 1133 0
-873 -1131 1133 0
-1061 -1131 1133 0
873 1061 -1133 0
873 1131 -1133 0
1061 1131 -1133 0
-874 -1062 -1134 0
874 1062 -1134 0
-874 1062 1134 0
874 -1062 1134 0
-1134 -1133 -1094 0
1134 1133 -1094 0
-1134 1133 1094 0
1134 -1133 1094 0
-874 -1062 1135 0
-874 -1133 1135 0
-1062 -1133 1135 0
874 1062 -1135 0
874 1133 -1135 0
1062 1133 -1135 0
-875 -1063 -1136 0
875 1063 -1136 0
-875 1063 1136 0
875 -1063 1136 0
-1136 -1135 -1095 0
1136 1135 -1095 0
-1136 1135 1095 0
1136 -1135 1095 0
-875 -1063 1137 0
-875 -1135 1137 0
-1063 -1135 1137 0
875 1063 -1137 0
875 1135 -1137 0
1063 1135 -1137 0
-876 -1064 -1138 0
876 1064 -1138 0
-876 1064 1138 0
876 -1064 1138 0
-1138 -1137 -1096 0
1138 1137 -1096 0
-1138 1137 1096 0
1138 -1137 1096 0
-876 -1064 1139 0
-876 -1137 1139 0
-1064 -1137 1139 0
876 1064 -1139 0
876 1137 -1139 0
1064 1137 -1139 0
-877 -1065 -1140 0
877 1065 -1140 0
-877 1065 1140 0
877 -1065 1140 0
-1140 -1139 -1097 0
1140 1139 -1097 0
-1140 1139 1097 0
1140 -1139 1097 0
-877 -1065 1141 0
-877 -1139 1141 0
-1065 -1139 1141 0
877 1065 -1141 0
877 1139 -1141 0
1065 1139 -1141 0
-878 -1066 -1142 0
878 1066 -1142 0
-878 1066 1142 0
878 -1066 1142 0
-1142 -1141 -1098 0
1142 1141 -1098 0
-1142 1141 1098 0
1142 -1141 1098 0
-878 -1066 1143 0
-878 -1141 1143 0
-1066 -1141 1143 0
878 1066 -1143 0
878 1141 -1143 0
1066 1141 -1143 0
-879 -1067 -1144 0
879 1067 -1144 0
-879 1067 1144 0
879 -1067 1144 0
-1144 -1143 -1099 0
1144 1143 -1099 0
-1144 1143 1099 0
1144 -1143 1099 0
-879 -1067 1145 0
-879 -1143 1145 0
-1067 -1143 1145 0
879 1067 -1145 0
879 1143 -1145 0
1067 1143 -1145 0
-880 -1068 -1146 0
880 1068 -1146 0
-880 1068 1146 0
880 -1068 1146 0
-1146 -1145 -1100 0
1146 1145 -1100 0
-1146 1145 1100 0
1146 -1145 1100 0
-880 -1068 1147 0
-880 -1145 1147 0
-1068 -1145 1147 0
880 1068 -1147 0
880 1145 -1147 0
1068 1145 -1147 0
-881 -1069 -1148 0
881 1069 -1148 0
-881 1069 1148 0
881 -1069 1148 0
-1148 -1147 -1101 0
1148 1147 -1101 0
-1148 1147 1101 0
1148 -1147 1101 0
-881 -1069 1149 0
-881 -1147 1149 0
-1069 -1147 1149 0
881 1069 -1149 0
881 1147 -1149 0
1069 1147 -1149 0
-882 -1070 -1150 0
882 1070 -1150 0
-882 1070 1150 0
882 -1070 1150 0
-1150 -1149 -1102 0
1150 1149 -1102 0
-1150 1149 1102 0
1150 -1149 1102 0
-882 -1070 1151 0
-882 -1149 1151 0
-1070 -1149 1151 0
882 1070 -1151 0
882 1149 -1151 0
1070 1149 -1151 0
-883 -1071 -1152 0
883 1071 -1152 0
-883 1071 1152 0
883 -1071 1152 0
-1152 -1151 -1103 0
1152 1151 -1103 0
-1152 1151 1103 0
1152 -1151 1103 0
-883 -1071 1153 0
-883 -1151 1153 0
-1071 -1151 1153 0
883 1071 -1153 0
883 1151 -1153 0
1071 1151 -1153 0
-884 -1072 -1154 0
884 1072 -1154 0
-884 1072 1154 0
884 -1072 1154 0
-1154 -1153 -1104 0
1154 1153 -1104 0
-1154 1153 1104 0
1154 -1153 1104 0
-884 -1072 1155 0
-884 -1153 1155 0
-1072 -1153 1155 0
884 1072 -1155 0
884 1153 -1155 0
1072 1153 -1155 0
-885 -1073 -1156 0
885 1073 -1156 0
-885 1073 1156 0
885 -1073 1156 0
-1156 -1155 -1105 0
1156 1155 -1105 0
-1156 1155 1105 0
1156 -1155 1105 0
-885 -1073 1157 0
-885 -1155 1157 0
-1073 -1155 1157 0
885 1073 -1157 0
885 1155 -1157 0
1073 1155 -1157 0
-886 -1074 -1158 0
886 1074 -1158 0
-886 1074 1158 0
886 -1074 1158 0
-1158 -1157 -1106 0
1158 1157 -1106 0
-1158 1157 1106 0
1158 -1157 1106 0
-886 -1074 1159 0
-886 -1157 1159 0
-1074 -1157 1159 0
886 1074 -1159 0
886 1157 -1159 0
1074 1157 -1159 0
-887 -1075 -1160 0
887 1075 -1160 0
-887 1075 1160 0
887 -1075 1160 0
-1160 -1159 -1107 0
1160 1159 -1107 0
-1160 1159 1107 0
1160 -1159 1107 0
-887 -1075 1161 0
-887 -1159 1161 0
-1075 -1159 1161 0
887 1075 -1161 0
887 1159 -1161 0
1075 1159 -1161 0
-888 -1076 -1162 0
888 1076 -1162 0
-888 1076 1162 0
888 -1076 1162 0
-1162 -1161 -1108 0
1162 1161 -1108 0
-1162 1161 1108 0
1162 -1161 1108 0
-888 -1076 1163 0
-888 -1161 1163 0
-1076 -1161 1163 0
888 1076 -1163 0
888 1161 -1163 0
1076 1161 -1163 0
-889 -1077 -1164 0
889 1077 -1164 0
-889 1077 1164 0
889 -1077 1164 0
-1164 -1163 -1109 0
1164 1163 -1109 0
-1164 1163 1109 0
1164 -1163 1109 0
-889 -1077 1165 0
-889 -1163 1165 0
-1077 -1163 1165 0
889 1077 -1165 0
889 1163 -1165 0
1077 1163 -1165 0
-890 -1078 -1166 0
890 1078 -1166 0
-890 1078 1166 0
890 -1078 1166 0
-1166 -1165 -1110 0
1166 1165 -1110 0
-1166 1165 1110 0
1166 -1165 1110 0
-890 -1078 1167 0
-890 -1165 1167 0
-1078 -1165 1167 0
890 1078 -1167 0
890 1165 -1167 0
1078 1165 -1167 0
-891 -1079 -1168 0
891 1079 -1168 0
-891 1079 1168 0
891 -1079 1168 0
-1168 -1167 -1111 0
1168 1167 -1111 0
-1168 1167 1111 0
1168 -1167 1111 0
-891 -1079 1169 0
-891 -1167 1169 0
-1079 -1167 1169 0
891 1079 -1169 0
891 1167 -1169 0
1079 1167 -1169 0
-892 -1080 -1170 0
892 1080 -1170 0
-892 1080 1170 0
892 -1080 1170 0
-1170 -1169 -1112 0
1170 1169 -1112 0
-1170 1169 1112 0
1170 -1169 1112 0
-892 -1080 1171 0
-892 -1169 1171 0
-1080 -1169 1171 0
892 1080 -1171 0
892 1169 -1171 0
1080 1169 -1171 0
-893 -1081 -1172 0
893 1081 -1172 0
-893 1081 1172 0
893 -1081 1172 0
-1172 -1171 -1113 0
1172 1171 -1113 0
-1172 1171 1113 0
1172 -1171 1113 0
-893 -1081 1173 0
-893 -1171 1173 0
-1081 -1171 1173 0
893 1081 -1173 0
893 1171 -1173 0
1081 1171 -1173 0
-894 -1082 -1174 0
894 1082 -1174 0
-894 1082 1174 0
894 -1082 1174 0
-1174 -1173 -1114 0
1174 1173 -1114 0
-1174 1173 1114 0
1174 -1173 1114 0
-894 -1082 1175 0
-894 -1173 1175 0
-1082 -1173 1175 0
894 1082 -1175 0
894 1173 -1175 0
1082 1173 -1175 0
-895 -1083 -1176 0
895 1083 -1176 0
-895 1083 1176 0
895 -1083 1176 0
-1176 -1175 -1115 0
1176 1175 -1115 0
-1176 1175 1115 0
1176 -1175 1115 0
-895 -1083 1177 0
-895 -1175 1177 0
-1083 -1175 1177 0
895 1083 -1177 0
895 1175 -1177 0
1083 1175 -1177 0
-896 -1084 -1178 0
896 1084 -1178 0
-896 1084 1178 0
896 -1084 1178 0
-1178 -1177 -1116 0
1178 1177 -1116 0
-1178 1177 1116 0
1178 -1177 1116 0
-959 -1085 -1179 0
959 1085 -1179 0
-959 1085 1179 0
959 -1085 1179 0
-959 -1085 1211 0
959 -1211 0
1085 -1211 0
-960 -1086 -1212 0
960 1086 -1212 0
-960 1086 1212 0
960 -1086 1212 0
-1212 -1211 -1180 0
1212 1211 -1180 0
-1212 1211 1180 0
1212 -1211 1180 0
-960 -1086 1213 0
-960 -1211 1213 0
-1086 -1211 1213 0
960 1086 -1213 0
960 1211 -1213 0
1086 1211 -1213 0
-961 -1087 -1214 0
961 1087 -1214 0
-961 1087 1214 0
961 -1087 1214 0
-1214 -1213 -1181 0
1214 1213 -1181 0
-1214 1213 1181 0
1214 -1213 1181 0
-961 -1087 1215 0
-961 -1213 1215 0
-1087 -1213 1215 0
961 1087 -1215 0
961 1213 -1215 0
1087 1213 -1215 0
-962 -1088 -1216 0
962 1088 -1216 0
-962 1088 1216 0
962 -1088 1216 0
-1216 -1215 -1182 0
1216 1215 -1182 0
-1216 1215 1182 0
1216 -1215 1182 0
-962 -1088 1217 0
-962 -1215 1217 0
-1088 -1215 1217 0
962 1088 -1217 0
962 1215 -1217 0
1088 1215 -1217 0
-963 -1089 -1218 0
963 1089 -1218 0
-963 1089 1218 0
963 -1089 1218 0
-1218 -1217 -1183 0
1218 1217 -1183 0
-1218 1217 1183 0
1218 -1217 1183 0
-963 -1089 1219 0
-963 -1217 1219 0
-1089 -1217 1219 0
963 1089 -1219 0
963 1217 -1219 0
1089 1217 -1219 0
-964 -1090 -1220 0
964 1090 -1220 0
-964 1090 1220 0
964 -1090 1220 0
-1220 -1219 -1184 0
1220 1219 -1184 0
-1220 1219 1184 0
1220 -1219 1184 0
-964 -1090 1221 0
-964 -1219 1221 0
-1090 -1219 1221 0
964 1090 -1221 0
964 1219 -1221 0
1090 1219 -1221 0
-965 -1091 -1222 0
965 1091 -1222 0
-965 1091 1222 0
965 -1091 1222 0
-1222 -1221 -1185 0
1222 1221 -1185 0
-1222 1221 1185 0
1222 -1221 1185 0
-965 -1091 1223 0
-965 -1221 1223 0
-1091 -1221 1223 0
965 1091 -1223 0
965 1221 -1223 0
1091 1221 -1223 0
-966 -1092 -1224 0
966 1092 -1224 0
-966 1092 1224 0
966 -1092 1224 0
-1224 -1223 -1186 0
1224 1223 -1186 0
-1224 1223 1186 0
1224 -1223 1186 0
-966 -1092 1225 0
-966 -1223 1225 0
-1092 -1223 1225 0
966 1092 -1225 0
966 1223 -1225 0
1092 1223 -1225 0
-967 -1093 -1226 0
967 1093 -1226 0
-967 1093 1226 0
967 -1093 1226 0
-1226 -1225 -1187 0
1226 1225 -1187 0
-1226 1225 1187 0
1226 -1225 1187 0
-967 -1093 1227 0
-967 -1225 1227 0
-1093 -1225 1227 0
967 1093 -1227 0
967 1225 -1227 0
1093 1225 -1227 0
-968 -1094 -1228 0
968 1094 -1228 0
-968 1094 1228 0
968 -1094 1228 0
-1228 -1227 -1188 0
1228 1227 -1188 0
-1228 1227 1188 0
1228 -1227 1188 0
-968 -1094 1229 0
-968 -1227 1229 0
-1094 -1227 1229 0
968 1094 -1229 0
968 1227 -1229 0
1094 1227 -1229 0
-969 -1095 -1230 0
969 1095 -1230 0
-969 1095 1230 0
969 -1095 1230 0
-1230 -1229 -1189 0
1230 1229 -1189 0
-1230 1229 1189 0
1230 -1229 1189 0
-969 -1095 1231 0
-969 -1229 1231 0
-1095 -1229 1231 0
969 1095 -1231 0
969 1229 -1231 0
1095 1229 -1231 0
-970 -1096 -1232 0
970 1096 -1232 0
-970 1096 1232 0
970 -1096 1232 0
-1232 -1231 -1190 0
1232 1231 -1190 0
-1232 1231 1190 0
1232 -1231 1190 0
-970 -1096 1233 0
-970 -1231 1233 0
-1096 -1231 1233 0
970 1096 -1233 0
970 1231 -1233 0
1096 1231 -1233 0
-971 -1097 -1234 0
971 1097 -1234 0
-971 1097 1234 0
971 -1097 1234 0
-1234 -1233 -1191 0
1234 1233 -1191 0
-1234 1233 1191 0
1234 -1233 1191 0
-971 -1097 1235 0
-971 -1233 1235 0
-1097 -1233 1235 0
971 1097 -1235 0
971 1233 -1235 0
1097 1233 -1235 0
-972 -1098 -1236 0
972 1098 -1236 0
-972 1098 1236 0
972 -1098 1236 0
-1236 -1235 -1192 0
1236 1235 -1192 0
-1236 1235 1192 0
1236 -1235 1192 0
-972 -1098 1237 0
-972 -1235 1237 0
-1098 -1235 1237 0
972 1098 -1237 0
972 1235 -1237 0
1098 1235 -1237 0
-973 -1099 -1238 0
973 1099 -1238 0
-973 1099 1238 0
973 -1099 1238 0
-1238 -1237 -1193 0
1238 1237 -1193 0
-1238 1237 1193 0
1238 -1237 1193 0
-973 -1099 1239 0
-973 -1237 1239 0
-1099 -1237 1239 0
973 1099 -1239 0
973 1237 -1239 0
1099 1237 -1239 0
-974 -1100 -1240 0
974 1100 -1240 0
-974 1100 1240 0
974 -1100 1240 0
-1240 -1239 -1194 0
1240 1239 -1194 0
-1240 1239 1194 0
1240 -1239 1194 0
-974 -1100 1241 0
-974 -1239 1241 0
-1100 -1239 1241 0
974 1100 -1241 0
974 1239 -1241 0
1100 1239 -1241 0
-975 -1101 -1242 0
975 1101 -1242 0
-975 1101 1242 0
975 -1101 1242 0
-1242 -1241 -1195 0
1242 1241 -1195 0
-1242 1241 1195 0
1242 -1241 1195 0
-975 -1101 1243 0
-975 -1241 1243 0
-1101 -1241 1243 0
975 1101 -1243 0
975 1241 -1243 0
1101 1241 -1243 0
-976 -1102 -1244 0
976 1102 -1244 0
-976 1102 1244 0
976 -1102 1244 0
-1244 -1243 -1196 0
1244 1243 -1196 0
-1244 1243 1196 0
1244 -1243 1196 0
-976 -1102 1245 0
-976 -1243 1245 0
-1102 -1243 1245 0
976 1102 -1245 0
976 1243 -1245 0
1102 1243 -1245 0
-977 -1103 -1246 0
977 1103 -1246 0
-977 1103 1246 0
977 -1103 1246 0
-1246 -1245 -1197 0
1246 1245 -1197 0
-1246 1245 1197 0
1246 -1245 1197 0
-977 -1103 1247 0
-977 -1245 1247 0
-1103 -1245 1247 0
977 1103 -1247 0
977 1245 -1247 0
1103 1245 -1247 0
-978 -1104 -1248 0
978 1104 -1248 0
-978 1104 1248 0
978 -1104 1248 0
-1248 -1247 -1198 0
1248 1247 -1198 0
-1248 1247 1198 0
1248 -1247 1198 0
-978 -1104 1249 0
-978 -1247 1249 0
-1104 -1247 1249 0
978 1104 -1249 0
978 1247 -1249 0
1104 1247 -1249 0
-979 -1105 -1250 0
979 1105 -1250 0
-979 1105 1250 0
979 -1105 1250 0
-1250 -1249 -1199 0
1250 1249 -1199 0
-1250 1249 1199 0
1250 -1249 1199 0
-979 -1105 1251 0
-979 -1249 1251 0
-1105 -1249 1251 0
979 1105 -1251 0
979 1249 -1251 0
1105 1249 -1251 0
-980 -1106 -1252 0
980 1106 -1252 0
-980 1106 1252 0
980 -1106 1252 0
-1252 -1251 -1200 0
1252 1251 -1200 0
-1252 1251 1200 0
1252 -1251 1200 0
-980 -1106 1253 0
-980 -1251 1253 0
-1106 -1251 1253 0
980 1106 -1253 0
980 1251 -1253 0
1106 1251 -1253 0
-981 -1107 -1254 0
981 1107 -1254 0
-981 1107 1254 0
981 -1107 1254 0
-1254 -1253 -1201 0
1254 1253 -1201 0
-1254 1253 1201 0
1254 -1253 1201 0
-981 -1107 1255 0
-981 -1253 1255 0
-1107 -1253 1255 0
981 1107 -1255 0
981 1253 -1255 0
1107 1253 -1255 0
-982 -1108 -1256 0
982 1108 -1256 0
-982 1108 1256 0
982 -1108 1256 0
-1256 -1255 -1202 0
1256 1255 -1202 0
-1256 1255 1202 0
1256 -1255 1202 0
-982 -1108 1257 0
-982 -1255 1257 0
-1108 -1255 1257 0
982 1108 -1257 0
982 1255 -1257 0
1108 1255 -1257 0
-983 -1109 -1258 0
983 1109 -1258 0
-983 1109 1258 0
983 -1109 1258 0
-1258 -1257 -1203 0
1258 1257 -1203 0
-1258 1257 1203 0
1258 -1257 1203 0
-983 -1109 1259 0
-983 -1257 1259 0
-1109 -1257 1259 0
983 1109 -1259 0
983 1257 -1259 0
1109 1257 -1259 0
-984 -1110 -1260 0
984 1110 -1260 0
-984 1110 1260 0
984 -1110 1260 0
-1260 -1259 -1204 0
1260 1259 -1204 0
-1260 1259 1204 0
1260 -1259 1204 0
-984 -1110 1261 0
-984 -1259 1261 0
-1110 -1259 1261 0
984 1110 -1261 0
984 1259 -1261 0
1110 1259 -1261 0
-985 -1111 -1262 0
985 1111 -1262 0
-985 1111 1262 0
985 -1111 1262 0
-1262 -1261 -1205 0
1262 1261 -1205 0
-1262 1261 1205 0
1262 -1261 1205 0
-985 -1111 1263 0
-985 -1261 1263 0
-1111 -1261 1263 0
985 1111 -1263 0
985 1261 -1263 0
1111 1261 -1263 0
-986 -1112 -1264 0
986 1112 -1264 0
-986 1112 1264 0
986 -1112 1264 0
-1264 -1263 -1206 0
1264 1263 -1206 0
-1264 1263 1206 0
1264 -1263 1206 0
-986 -1112 1265 0
-986 -1263 1265 0
-1112 -1263 1265 0
986 1112 -1265 0
986 1263 -1265 0
1112 1263 -1265 0
-987 -1113 -1266 0
987 1113 -1266 0
-987 1113 1266 0
987 -1113 1266 0
-1266 -1265 -1207 0
1266 1265 -1207 0
-1266 1265 1207 0
1266 -1265 1207 0
-987 -1113 1267 0
-987 -1265 1267 0
-1113 -1265 1267 0
987 1113 -1267 0
987 1265 -1267 0
1113 1265 -1267 0
-988 -1114 -1268 0
988 1114 -1268 0
-988 1114 1268 0
988 -1114 1268 0
-1268 -1267 -1208 0
1268 1267 -1208 0
-1268 1267 1208 0
1268 -1267 1208 0
-988 -1114 1269 0
-988 -1267 1269 0
-1114 -1267 1269 0
988 1114 -1269 0
988 1267 -1269 0
1114 1267 -1269 0
-989 -1115 -1270 0
989 1115 -1270 0
-989 1115 1270 0
989 -1115 1270 0
-1270 -1269 -1209 0
1270 1269 -1209 0
-1270 1269 1209 0
1270 -1269 1209 0
-989 -1115 1271 0
-989 -1269 1271 0
-1115 -1269 1271 0
989 1115 -1271 0
989 1269 -1271 0
1115 1269 -1271 0
-990 -1116 -1272 0
990 1116 -1272 0
-990 1116 1272 0
990 -1116 1272 0
-1272 -1271 -1210 0
1272 1271 -1210 0
-1272 1271 1210 0
1272 -1271 1210 0
-515 -526 -1305 0
515 526 -1305 0
-515 526 1305 0
515 -526 1305 0
-1305 -535 -1273 0
1305 535 -1273 0
-1305 535 1273 0
1305 -535 1273 0
-516 -527 -1306 0
516 527 -1306 0
-516 527 1306 0
516 -527 1306 0
-1306 -536 -1274 0
1306 536 -1274 0
-1306 536 1274 0
1306 -536 1274 0
-517 -528 -1307 0
517 528 -1307 0
-517 528 1307 0
517 -528 1307 0
-1307 -537 -1275 0
1307 537 -1275 0
-1307 537 1275 0
1307 -537 1275 0
-518 -529 -1308 0
518 529 -1308 0
-518 529 1308 0
518 -529 1308 0
-1308 -538 -1276 0
1308 538 -1276 0
-1308 538 1276 0
1308 -538 1276 0
-519 -530 -1309 0
519 530 -1309 0
-519 530 1309 0
519 -530 1309 0
-1309 -539 -1277 0
1309 539 -1277 0
-1309 539 1277 0
1309 -539 1277 0
-520 -531 -1310 0
520 531 -1310 0
-520 531 1310 0
520 -531 1310 0
-1310 -540 -1278 0
1310 540 -1278 0
-1310 540 1278 0
1310 -540 1278 0
-521 -532 -1311 0
521 532 -1311 0
-521 532 1311 0
521 -532 1311 0
-1311 -541 -1279 0
1311 541 -1279 0
-1311 541 1279 0
1311 -541 1279 0
-522 -533 -1312 0
522 533 -1312 0
-522 533 1312 0
522 -533 1312 0
-1312 -542 -1280 0
1312 542 -1280 0
-1312 542 1280 0
1312 -542 1280 0
-523 -534 -1313 0
523 534 -1313 0
-523 534 1313 0
523 -534 1313 0
-1313 -543 -1281 0
1313 543 -1281 0
-1313 543 1281 0
1313 -543 1281 0
-524 -535 -1314 0
524 535 -1314 0
-524 535 1314 0
524 -535 1314 0
-1314 -544 -1282 0
1314 544 -1282 0
-1314 544 1282 0
1314 -544 1282 0
-525 -536 -1315 0
525 536 -1315 0
-525 536 1315 0
525 -536 1315 0
-1315 -513 -1283 0
1315 513 -1283 0
-1315 513 1283 0
1315 -513 1283 0
-526 -537 -1316 0
526 537 -1316 0
-526 537 1316 0
526 -537 1316 0
-1316 -514 -1284 0
1316 514 -1284 0
-1316 514 1284 0
1316 -514 1284 0
-527 -538 -1317 0
527 538 -1317 0
-527 538 1317 0
527 -538 1317 0
-1317 -515 -1285 0
1317 515 -1285 0
-1317 515 1285 0
1317 -515 1285 0
-528 -539 -1318 0
528 539 -1318 0
-528 539 1318 0
528 -539 1318 0
-1318 -516 -1286 0
1318 516 -1286 0
-1318 516 1286 0
1318 -516 1286 0
-529 -540 -1319 0
529 540 -1319 0
-529 540 1319 0
529 -540 1319 0
-1319 -517 -1287 0
1319 517 -1287 0
-1319 517 1287 0
1319 -517 1287 0
-530 -541 -1320 0
530 541 -1320 0
-530 541 1320 0
530 -541 1320 0
-1320 -518 -1288 0
1320 518 -1288 0
-1320 518 1288 0
1320 -518 1288 0
-531 -542 -1321 0
531 542 -1321 0
-531 542 1321 0
531 -542 1321 0
-1321 -519 -1289 0
1321 519 -1289 0
-1321 519 1289 0
1321 -519 1289 0
-532 -543 -1322 0
532 543 -1322 0
-532 543 1322 0
532 -543 1322 0
-1322 -520 -1290 0
1322 520 -1290 0
-1322 520 1290 0
1322 -520 1290 0
-533 -544 -1323 0
533 544 -1323 0
-533 544 1323 0
533 -544 1323 0
-1323 -521 -1291 0
1323 521 -1291 0
-1323 521 1291 0
1323 -521 1291 0
-534 -513 -1324 0
534 513 -1324 0
-534 513 1324 0
534 -513 1324 0
-1324 -522 -1292 0
1324 522 -1292 0
-1324 522 1292 0
1324 -522 1292 0
-535 -514 -1325 0
535 514 -1325 0
-535 514 1325 0
535 -514 1325 0
-1325 -523 -1293 0
1325 523 -1293 0
-1325 523 1293 0
1325 -523 1293 0
-536 -515 -1326 0
536 515 -1326 0
-536 515 1326 0
536 -515 1326 0
-1326 -524 -1294 0
1326 524 -1294 0
-1326 524 1294 0
1326 -524 1294 0
-537 -516 -1327 0
537 516 -1327 0
-537 516 1327 0
537 -516 1327 0
-1327 -525 -1295 0
1327 525 -1295 0
-1327 525 1295 0
1327 -525 1295 0
-538 -517 -1328 0
538 517 -1328 0
-538 517 1328 0
538 -517 1328 0
-1328 -526 -1296 0
1328 526 -1296 0
-1328 526 1296 0
1328 -526 1296 0
-539 -518 -1329 0
539 518 -1329 0
-539 518 1329 0
539 -518 1329 0
-1329 -527 -1297 0
1329 527 -1297 0
-1329 527 1297 0
1329 -527 1297 0
-540 -519 -1330 0
540 519 -1330 0
-540 519 1330 0
540 -519 1330 0
-1330 -528 -1298 0
1330 528 -1298 0
-1330 528 1298 0
1330 -528 1298 0
-541 -520 -1331 0
541 520 -1331 0
-541 520 1331 0
541 -520 1331 0
-1331 -529 -1299 0
1331 529 -1299 0
-1331 529 1299 0
1331 -529 1299 0
-542 -521 -1332 0
542 521 -1332 0
-542 521 1332 0
542 -521 1332 0
-1332 -530 -1300 0
1332 530 -1300 0
-1332 530 1300 0
1332 -530 1300 0
-543 -522 -1333 0
543 522 -1333 0
-543 522 1333 0
543 -522 1333 0
-1333 -531 -1301 0
1333 531 -1301 0
-1333 531 1301 0
1333 -531 1301 0
-544 -523 -1334 0
544 523 -1334 0
-544 523 1334 0
544 -523 1334 0
-1334 -532 -1302 0
1334 532 -1302 0
-1334 532 1302 0
1334 -532 1302 0
-513 -524 -1335 0
513 524 -1335 0
-513 524 1335 0
513 -524 1335 0
-1335 -533 -1303 0
1335 533 -1303 0
-1335 533 1303 0
1335 -533 1303 0
-514 -525 -1336 0
514 525 -1336 0
-514 525 1336 0
514 -525 1336 0
-1336 -534 -1304 0
1336 534 -1304 0
-1336 534 1304 0
1336 -534 1304 0
-513 -545 1337 0
-513 -577 1337 0
-545 -577 1337 0
513 545 -1337 0
513 577 -1337 0
545 577 -1337 0
-514 -546 1338 0
-514 -578 1338 0
-546 -578 1338 0
514 546 -1338 0
514 578 -1338 0
546 578 -1338 0
-515 -547 1339 0
-515 -579 1339 0
-547 -579 1339 0
515 547 -1339 0
515 579 -1339 0
547 579 -1339 0
-516 -548 1340 0
-516 -580 1340 0
-548 -580 1340 0
516 548 -1340 0
516 580 -1340 0
548 580 -1340 0
-517 -549 1341 0
-517 -581 1341 0
-549 -581 1341 0
517 549 -1341 0
517 581 -1341 0
549 581 -1341 0
-518 -550 1342 0
-518 -582 1342 0
-550 -582 1342 0
518 550 -1342 0
518 582 -1342 0
550 582 -1342 0
-519 -551 1343 0
-519 -583 1343 0
-551 -583 1343 0
519 551 -1343 0
519 583 -1343 0
551 583 -1343 0
-520 -552 1344 0
-520 -584 1344 0
-552 -584 1344 0
520 552 -1344 0
520 584 -1344 0
552 584 -1344 0
-521 -553 1345 0
-521 -585 1345 0
-553 -585 1345 0
521 553 -1345 0
521 585 -1345 0
553 585 -1345 0
-522 -554 1346 0
-522 -586 1346 0
-554 -586 1346 0
522 554 -1346 0
522 586 -1346 0
554 586 -1346 0
-523 -555 1347 0
-523 -587 1347 0
-555 -587 1347 0
523 555 -1347 0
523 587 -1347 0
555 587 -1347 0
-524 -556 1348 0
-524 -588 1348 0
-556 -588 1348 0
524 556 -1348 0
524 588 -1348 0
556 588 -1348 0
-525 -557 1349 0
-525 -589 1349 0
-557 -589 1349 0
525 557 -1349 0
525 589 -1349 0
557 589 -1349 0
-526 -558 1350 0
-526 -590 1350 0
-558 -590 1350 0
526 558 -1350 0
526 590 -1350 0
558 590 -1350 0
-527 -559 1351 0
-527 -591 1351 0
-559 -591 1351 0
527 559 -1351 0
527 591 -1351 0
559 591 -1351 0
-528 -560 1352 0
-528 -592 1352 0
-560 -592 1352 0
528 560 -1352 0
528 592 -1352 0
560 592 -1352 0
-529 -561 1353 0
-529 -593 1353 0
-561 -593 1353 0
529 561 -1353 0
529 593 -1353 0
561 593 -1353 0
-530 -562 1354 0
-530 -594 1354 0
-562 -594 1354 0
530 562 -1354 0
530 594 -1354 0
562 594 -1354 0
-531 -563 1355 0
-531 -595 1355 0
-563 -595 1355 0
531 563 -1355 0
531 595 -1355 0
563 595 -1355 0
-532 -564 1356 0
-532 -596 1356 0
-564 -596 1356 0
532 564 -1356 0
532 596 -1356 0
564 596 -1356 0
-533 -565 1357 0
-533 -597 1357 0
-565 -597 1357 0
533 565 -1357 0
533 597 -1357 0
565 597 -1357 0
-534 -566 1358 0
-534 -598 1358 0
-566 -598 1358 0
534 566 -1358 0
534 598 -1358 0
566 598 -1358 0
-535 -567 1359 0
-535 -599 1359 0
-567 -599 1359 0
535 567 -1359 0
535 599 -1359 0
567 599 -1359 0
-536 -568 1360 0
-536 -600 1360 0
-568 -600 1360 0
536 568 -1360 0
536 600 -1360 0
568 600 -1360 0
-537 -569 1361 0
-537 -601 1361 0
-569 -601 1361 0
537 569 -1361 0
537 601 -1361 0
569 601 -1361 0
-538 -570 1362 0
-538 -602 1362 0
-570 -602 1362 0
538 570 -1362 0
538 602 -1362 0
570 602 -1362 0
-539 -571 1363 0
-539 -603 1363 0
-571 -603 1363 0
539 571 -1363 0
539 603 -1363 0
571 603 -1363 0
-540 -572 1364 0
-540 -604 1364 0
-572 -604 1364 0
540 572 -1364 0
540 604 -1364 0
572 604 -1364 0
-541 -573 1365 0
-541 -605 1365 0
-573 -605 1365 0
541 573 -1365 0
541 605 -1365 0
573 605 -1365 0
-542 -574 1366 0
-542 -606 1366 0
-574 -606 1366 0
542 574 -1366 0
542 606 -1366 0
574 606 -1366 0
-543 -575 1367 0
-543 -607 1367 0
-575 -607 1367 0
543 575 -1367 0
543 607 -1367 0
575 607 -1367 0
-544 -576 1368 0
-544 -608 1368 0
-576 -608 1368 0
544 576 -1368 0
544 608 -1368 0
576 608 -1368 0
-1273 -1337 -1369 0
1273 1337 -1369 0
-1273 1337 1369 0
1273 -1337 1369 0
-1273 -1337 1401 0
1273 -1401 0
1337 -1401 0
-1274 -1338 -1402 0
1274 1338 -1402 0
-1274 1338 1402 0
1274 -1338 1402 0
-1402 -1401 -1370 0
1402 1401 -1370 0
-1402 1401 1370 0
1402 -1401 1370 0
-1274 -1338 1403 0
-1274 -1401 1403 0
-1338 -1401 1403 0
1274 1338 -1403 0
1274 1401 -1403 0
1338 1401 -1403 0
-1275 -1339 -1404 0
1275 1339 -1404 0
-1275 1339 1404 0
1275 -1339 1404 0
-1404 -1403 -1371 0
1404 1403 -1371 0
-1404 1403 1371 0
1404 -1403 1371 0
-1275 -1339 1405 0
-1275 -1403 1405 0
-1339 -1403 1405 0
1275 1339 -1405 0
1275 1403 -1405 0
1339 1403 -1405 0
-1276 -1340 -1406 0
1276 1340 -1406 0
-1276 1340 1406 0
1276 -1340 1406 0
-1406 -1405 -1372 0
1406 1405 -1372 0
-1406 1405 1372 0
1406 -1405 1372 0
-1276 -1340 1407 0
-1276 -1405 1407 0
-1340 -1405 1407 0
1276 1340 -1407 0
1276 1405 -1407 0
1340 1405 -1407 0
-1277 -1341 -1408 0
1277 1341 -1408 0
-1277 1341 1408 0
1277 -1341 1408 0
-1408 -1407 -1373 0
1408 1407 -1373 0
-1408 1407 1373 0
1408 -1407 1373 0
-1277 -1341 1409 0
-1277 -1407 1409 0
-1341 -1407 1409 0
1277 1341 -1409 0
1277 1407 -1409 0
1341 1407 -1409 0
-1278 -1342 -1410 0
1278 1342 -1410 0
-1278 1342 1410 0
1278 -1342 1410 0
-1410 -1409 -1374 0
1410 1409 -1374 0
-1410 1409 1374 0
1410 -1409 1374 0
-1278 -1342 1411 0
-1278 -1409 1411 0
-1342 -1409 1411 0
1278 1342 -1411 0
1278 1409 -1411 0
1342 1409 -1411 0
-1279 -1343 -1412 0
1279 1343 -1412 0
-1279 1343 1412 0
1279 -1343 1412 0
-1412 -1411 -1375 0
1412 1411 -1375 0
-1412 1411 1375 0
1412 -1411 1375 0
-1279 -1343 1413 0
-1279 -1411 1413 0
-1343 -1411 1413 0
1279 1343 -1413 0
1279 1411 -1413 0
1343 1411 -1413 0
-1280 -1344 -1414 0
1280 1344 -1414 0
-1280 1344 1414 0
1280 -1344 1414 0
-1414 -1413 -1376 0
1414 1413 -1376 0
-1414 1413 1376 0
1414 -1413 1376 0
-1280 -1344 1415 0
-1280 -1413 1415 0
-1344 -1413 1415 0
1280 1344 -1415 0
1280 1413 -1415 0
1344 1413 -1415 0
-1281 -1345 -1416 0
1281 1345 -1416 0
-1281 1345 1416 0
1281 -1345 1416 0
-1416 -1415 -1377 0
1416 1415 -1377 0
-1416 1415 1377 0
1416 -1415 1377 0
-1281 -1345 1417 0
-1281 -1415 1417 0
-1345 -1415 1417 0
1281 1345 -1417 0
1281 1415 -1417 0
1345 1415 -1417 0
-1282 -1346 -1418 0
1282 1346 -1418 0
-1282 1346 1418 0
1282 -1346 1418 0
-1418 -1417 -1378 0
1418 1417 -1378 0
-1418 1417 1378 0
1418 -1417 1378 0
-1282 -1346 1419 0
-1282 -1417 1419 0
-1346 -1417 1419 0
1282 1346 -1419 0
1282 1417 -1419 0
1346 1417 -1419 0
-1283 -1347 -1420 0
1283 1347 -1420 0
-1283 1347 1420 0
1283 -1347 1420 0
-1420 -1419 -1379 0
1420 1419 -1379 0
-1420 1419 1379 0
1420 -1419 1379 0
-1283 -1347 1421 0
-1283 -1419 1421 0
-1347 -1419 1421 0
1283 1347 -1421 0
1283 1419 -1421 0
1347 1419 -1421 0
-1284 -1348 -1422 0
1284 1348 -1422 0
-1284 1348 1422 0
1284 -1348 1422 0
-1422 -1421 -1380 0
1422 1421 -1380 0
-1422 1421 1380 0
1422 -1421 1380 0
-1284 -1348 1423 0
-1284 -1421 1423 0
-1348 -1421 1423 0
1284 1348 -1423 0
1284 1421 -1423 0
1348 1421 -1423 0
-1285 -1349 -1424 0
1285 1349 -1424 0
-1285 1349 1424 0
1285 -1349 1424 0
-1424 -1423 -1381 0
1424 1423 -1381 0
-1424 1423 1381 0
1424 -1423 1381 0
-1285 -1349 1425 0
-1285 -1423 1425 0
-1349 -1423 1425 0
1285 1349 -1425 0
1285 1423 -1425 0
1349 1423 -1425 0
-1286 -1350 -1426 0
1286 1350 -1426 0
-1286 1350 1426 0
1286 -1350 1426 0
-1426 -1425 -1382 0
1426 1425 -1382 0
-1426 1425 1382 0
1426 -1425 1382 0
-1286 -1350 1427 0
-1286 -1425 1427 0
-1350 -1425 1427 0
1286 1350 -1427 0
1286 1425 -1427 0
1350 1425 -1427 0
-1287 -1351 -1428 0
1287 1351 -1428 0
-1287 1351 1428 0
1287 -1351 1428 0
-1428 -1427 -1383 0
1428 1427 -1383 0
-1428 1427 1383 0
1428 -1427 1383 0
-1287 -1351 1429 0
-1287 -1427 1429 0
-1351 -1427 1429 0
1287 1351 -1429 0
1287 1427 -1429 0
1351 1427 -1429 0
-1288 -1352 -1430 0
1288 1352 -1430 0
-1288 1352 1430 0
1288 -1352 1430 0
-1430 -1429 -1384 0
1430 1429 -1384 0
-1430 1429 1384 0
1430 -1429 1384 0
-1288 -1352 1431 0
-1288 -1429 1431 0
-1352 -1429 1431 0
1288 1352 -1431 0
1288 1429 -1431 0
1352 1429 -1431 0
-1289 -1353 -1432 0
1289 1353 -1432 0
-1289 1353 1432 0
1289 -1353 1432 0
-1432 -1431 -1385 0
1432 1431 -1385 0
-1432 1431 1385 0
1432 -1431 1385 0
-1289 -1353 1433 0
-1289 -1431 1433 0
-1353 -1431 1433 0
1289 1353 -1433 0
1289 1431 -1433 0
1353 1431 -1433 0
-1290 -1354 -1434 0
1290 1354 -1434 0
-1290 1354 1434 0
1290 -1354 1434 0
-1434 -1433 -1386 0
1434 1433 -1386 0
-1434 1433 1386 0
1434 -1433 1386 0
-1290 -1354 1435 0
-1290 -1433 1435 0
-1354 -1433 1435 0
1290 1354 -1435 0
1290 1433 -1435 0
1354 1433 -1435 0
-1291 -1355 -1436 0
1291 1355 -1436 0
-1291 1355 1436 0
1291 -1355 1436 0
-1436 -1435 -1387 0
1436 1435 -1387 0
-1436 1435 1387 0
1436 -1435 1387 0
-1291 -1355 1437 0
-1291 -1435 1437 0
-1355 -1435 1437 0
1291 1355 -1437 0
1291 1435 -1437 0
1355 1435 -1437 0
-1292 -1356 -1438 0
1292 1356 -1438 0
-1292 1356 1438 0
1292 -1356 1438 0
-1438 -1437 -1388 0
1438 1437 -1388 0
-1438 1437 1388 0
1438 -1437 1388 0
-1292 -1356 1439 0
-1292 -1437 1439 0
-1356 -1437 1439 0
1292 1356 -1439 0
1292 1437 -1439 0
1356 1437 -1439 0
-1293 -1357 -1440 0
1293 1357 -1440 0
-1293 1357 1440 0
1293 -1357 1440 0
-1440 -1439 -1389 0
1440 1439 -1389 0
-1440 1439 1389 0
1440 -1439 1389 0
-1293 -1357 1441 0
-1293 -1439 1441 0
-1357 -1439 1441 0
1293 1357 -1441 0
1293 1439 -1441 0
1357 1439 -1441 0
-1294 -1358 -1442 0
1294 1358 -1442 0
-1294 1358 1442 0
1294 -1358 1442 0
-1442 -1441 -1390 0
1442 1441 -1390 0
-1442 1441 1390 0
1442 -1441 1390 0
-1294 -1358 1443 0
-1294 -1441 1443 0
-1358 -1441 1443 0
1294 1358 -1443 0
1294 1441 -1443 0
1358 1441 -1443 0
-1295 -1359 -1444 0
1295 1359 -1444 0
-1295 1359 1444 0
1295 -1359 1444 0
-1444 -1443 -1391 0
1444 1443 -1391 0
-1444 1443 1391 0
1444 -1443 1391 0
-1295 -1359 1445 0
-1295 -1443 1445 0
-1359 -1443 1445 0
1295 1359 -1445 0
1295 1443 -1445 0
1359 1443 -1445 0
-1296 -1360 -1446 0
1296 1360 -1446 0
-1296 1360 1446 0
1296 -1360 1446 0
-1446 -1445 -1392 0
1446 1445 -1392 0
-1446 1445 1392 0
1446 -1445 1392 0
-1296 -1360 1447 0
-1296 -1445 1447 0
-1360 -1445 1447 0
1296 1360 -1447 0
1296 1445 -1447 0
1360 1445 -1447 0
-1297 -1361 -1448 0
1297 1361 -1448 0
-1297 1361 1448 0
1297 -1361 1448 0
-1448 -1447 -1393 0
1448 1447 -1393 0
-1448 1447 1393 0
1448 -1447 1393 0
-1297 -1361 1449 0
-1297 -1447 1449 0
-1361 -1447 1449 0
1297 1361 -1449 0
1297 1447 -1449 0
1361 1447 -1449 0
-1298 -1362 -1450 0
1298 1362 -1450 0
-1298 1362 1450 0
1298 -1362 1450 0
-1450 -1449 -1394 0
1450 1449 -1394 0
-1450 1449 1394 0
1450 -1449 1394 0
-1298 -1362 1451 0
-1298 -1449 1451 0
-1362 -1449 1451 0
1298 1362 -1451 0
1298 1449 -1451 0
1362 1449 -1451 0
-1299 -1363 -1452 0
1299 1363 -1452 0
-1299 1363 1452 0
1299 -1363 1452 0
-1452 -1451 -1395 0
1452 1451 -1395 0
-1452 1451 1395 0
1452 -1451 1395 0
-1299 -1363 1453 0
-1299 -1451 1453 0
-1363 -1451 1453 0
1299 1363 -1453 0
1299 1451 -1453 0
1363 1451 -1453 0
-1300 -1364 -1454 0
1300 1364 -1454 0
-1300 1364 1454 0
1300 -1364 1454 0
-1454 -1453 -1396 0
1454 1453 -1396 0
-1454 1453 1396 0
1454 -1453 1396 0
-1300 -1364 1455 0
-1300 -1453 1455 0
-1364 -1453 1455 0
1300 1364 -1455 0
1300 1453 -1455 0
1364 1453 -1455 0
-1301 -1365 -1456 0
1301 1365 -1456 0
-1301 1365 1456 0
1301 -1365 1456 0
-1456 -1455 -1397 0
1456 1455 -1397 0
-1456 1455 1397 0
1456 -1455 1397 0
-1301 -1365 1457 0
-1301 -1455 1457 0
-1365 -1455 1457 0
1301 1365 -1457 0
1301 1455 -1457 0
1365 1455 -1457 0
-1302 -1366 -1458 0
1302 1366 -1458 0
-1302 1366 1458 0
1302 -1366 1458 0
-1458 -1457 -1398 0
1458 1457 -1398 0
-1458 1457 1398 0
1458 -1457 1398 0
-1302 -1366 1459 0
-1302 -1457 1459 0
-1366 -1457 1459 0
1302 1366 -1459 0
1302 1457 -1459 0
1366 1457 -1459 0
-1303 -1367 -1460 0
1303 1367 -1460 0
-1303 1367 1460 0
1303 -1367 1460 0
-1460 -1459 -1399 0
1460 1459 -1399 0
-1460 1459 1399 0
1460 -1459 1399 0
-1303 -1367 1461 0
-1303 -1459 1461 0
-1367 -1459 1461 0
1303 1367 -1461 0
1303 1459 -1461 0
1367 1459 -1461 0
-1304 -1368 -1462 0
1304 1368 -1462 0
-1304 1368 1462 0
1304 -1368 1462 0
-1462 -1461 -1400 0
1462 1461 -1400 0
-1462 1461 1400 0
1462 -1461 1400 0
-609 -1179 -1463 0
609 1179 -1463 0
-609 1179 1463 0
609 -1179 1463 0
-609 -1179 1495 0
609 -1495 0
1179 -1495 0
-610 -1180 -1496 0
610 1180 -1496 0
-610 1180 1496 0
610 -1180 1496 0
-1496 -1495 -1464 0
1496 1495 -1464 0
-1496 1495 1464 0
1496 -1495 1464 0
-610 -1180 1497 0
-610 -1495 1497 0
-1180 -1495 1497 0
610 1180 -1497 0
610 1495 -1497 0
1180 1495 -1497 0
-611 -1181 -1498 0
611 1181 -1498 0
-611 1181 1498 0
611 -1181 1498 0
-1498 -1497 -1465 0
1498 1497 -1465 0
-1498 1497 1465 0
1498 -1497 1465 0
-611 -1181 1499 0
-611 -1497 1499 0
-1181 -1497 1499 0
611 1181 -1499 0
611 1497 -1499 0
1181 1497 -1499 0
-612 -1182 -1500 0
612 1182 -1500 0
-612 1182 1500 0
612 -1182 1500 0
-1500 -1499 -1466 0
1500 1499 -1466 0
-1500 1499 1466 0
1500 -1499 1466 0
-612 -1182 1501 0
-612 -1499 1501 0
-1182 -1499 1501 0
612 1182 -1501 0
612 1499 -1501 0
1182 1499 -1501 0
-613 -1183 -1502 0
613 1183 -1502 0
-613 1183 1502 0
613 -1183 1502 0
-1502 -1501 -1467 0
1502 1501 -1467 0
-1502 1501 1467 0
1502 -1501 1467 0
-613 -1183 1503 0
-613 -1501 1503 0
-1183 -1501 1503 0
613 1183 -1503 0
613 1501 -1503 0
1183 1501 -1503 0
-614 -1184 -1504 0
614 1184 -1504 0
-614 1184 1504 0
614 -1184 1504 0
-1504 -1503 -1468 0
1504 1503 -1468 0
-1504 1503 1468 0
1504 -1503 1468 0
-614 -1184 1505 0
-614 -1503 1505 0
-1184 -1503 1505 0
614 1184 -1505 0
614 1503 -1505 0
1184 1503 -1505 0
-615 -1185 -1506 0
615 1185 -1506 0
-615 1185 1506 0
615 -1185 1506 0
-1506 -1505 -1469 0
1506 1505 -1469 0
-1506 1505 1469 0
1506 -1505 1469 0
-615 -1185 1507 0
-615 -1505 1507 0
-1185 -1505 1507 0
615 1185 -1507 0
615 1505 -1507 0
1185 1505 -1507 0
-616 -1186 -1508 0
616 1186 -1508 0
-616 1186 1508 0
616 -1186 1508 0
-1508 -1507 -1470 0
1508 1507 -1470 0
-1508 1507 1470 0
1508 -1507 1470 0
-616 -1186 1509 0
-616 -1507 1509 0
-1186 -1507 1509 0
616 1186 -1509 0
616 1507 -1509 0
1186 1507 -1509 0
-617 -1187 -1510 0
617 1187 -1510 0
-617 1187 1510 0
617 -1187 1510 0
-1510 -1509 -1471 0
1510 1509 -1471 0
-1510 1509 1471 0
1510 -1509 1471 0
-617 -1187 1511 0
-617 -1509 1511 0
-1187 -1509 1511 0
617 1187 -1511 0
617 1509 -1511 0
1187 1509 -1511 0
-618 -1188 -1512 0
618 1188 -1512 0
-618 1188 1512 0
618 -1188 1512 0
-1512 -1511 -1472 0
1512 1511 -1472 0
-1512 1511 1472 0
1512 -1511 1472 0
-618 -1188 1513 0
-618 -1511 1513 0
-1188 -1511 1513 0
618 1188 -1513 0
618 1511 -1513 0
1188 1511 -1513 0
-619 -1189 -1514 0
619 1189 -1514 0
-619 1189 1514 0
619 -1189 1514 0
-1514 -1513 -1473 0
1514 1513 -1473 0
-1514 1513 1473 0
1514 -1513 1473 0
-619 -1189 1515 0
-619 -1513 1515 0
-1189 -1513 1515 0
619 1189 -1515 0
619 1513 -1515 0
1189 1513 -1515 0
-620 -1190 -1516 0
620 1190 -1516 0
-620 1190 1516 0
620 -1190 1516 0
-1516 -1515 -1474 0
1516 1515 -1474 0
-1516 1515 1474 0
1516 -1515 1474 0
-620 -1190 1517 0
-620 -1515 1517 0
-1190 -1515 1517 0
620 1190 -1517 0
620 1515 -1517 0
1190 1515 -1517 0
-621 -1191 -1518 0
621 1191 -1518 0
-621 1191 1518 0
621 -1191 1518 0
-1518 -1517 -1475 0
1518 1517 -1475 0
-1518 1517 1475 0
1518 -1517 1475 0
-621 -1191 1519 0
-621 -1517 1519 0
-1191 -1517 1519 0
621 1191 -1519 0
621 1517 -1519 0
1191 1517 -1519 0
-622 -1192 -1520 0
622 1192 -1520 0
-622 1192 1520 0
622 -1192 1520 0
-1520 -1519 -1476 0
1520 1519 -1476 0
-1520 1519 1476 0
1520 -1519 1476 0
-622 -1192 1521 0
-622 -1519 1521 0
-1192 -1519 1521 0
622 1192 -1521 0
622 1519 -1521 0
1192 1519 -1521 0
-623 -1193 -1522 0
623 1193 -1522 0
-623 1193 1522 0
623 -1193 1522 0
-1522 -1521 -1477 0
1522 1521 -1477 0
-1522 1521 1477 0
1522 -1521 1477 0
-623 -1193 1523 0
-623 -1521 1523 0
-1193 -1521 1523 0
623 1193 -1523 0
623 1521 -1523 0
1193 1521 -1523 0
-624 -1194 -1524 0
624 1194 -1524 0
-624 1194 1524 0
624 -1194 1524 0
-1524 -1523 -1478 0
1524 1523 -1478 0
-1524 1523 1478 0
1524 -1523 1478 0
-624 -1194 1525 0
-624 -1523 1525 0
-1194 -1523 1525 0
624 1194 -1525 0
624 1523 -1525 0
1194 1523 -1525 0
-625 -1195 -1526 0
625 1195 -1526 0
-625 1195 1526 0
625 -1195 1526 0
-1526 -1525 -1479 0
1526 1525 -1479 0
-1526 1525 1479 0
1526 -1525 1479 0
-625 -1195 1527 0
-625 -1525 1527 0
-1195 -1525 1527 0
625 1195 -1527 0
625 1525 -1527 0
1195 1525 -1527 0
-626 -1196 -1528 0
626 1196 -1528 0
-626 1196 1528 0
626 -1196 1528 0
-1528 -1527 -1480 0
1528 1527 -1480 0
-1528 1527 1480 0
1528 -1527 1480 0
-626 -1196 1529 0
-626 -1527 1529 0
-1196 -1527 1529 0
626 1196 -1529 0
626 1527 -1529 0
1196 1527 -1529 0
-627 -1197 -1530 0
627 1197 -1530 0
-627 1197 1530 0
627 -1197 1530 0
-1530 -1529 -1481 0
1530 1529 -1481 0
-1530 1529 1481 0
1530 -1529 1481 0
-627 -1197 1531 0
-627 -1529 1531 0
-1197 -1529 1531 0
627 1197 -1531 0
627 1529 -1531 0
1197 1529 -1531 0
-628 -1198 -1532 0
628 1198 -1532 0
-628 1198 1532 0
628 -1198 1532 0
-1532 -1531 -1482 0
1532 1531 -1482 0
-1532 1531 1482 0
1532 -1531 1482 0
-628 -1198 1533 0
-628 -1531 1533 0
-1198 -1531 1533 0
628 1198 -1533 0
628 1531 -1533 0
1198 1531 -1533 0
-629 -1199 -1534 0
629 1199 -1534 0
-629 1199 1534 0
629 -1199 1534 0
-1534 -1533 -1483 0
1534 1533 -1483 0
-1534 1533 1483 0
1534 -1533 1483 0
-629 -1199 1535 0
-629 -1533 1535 0
-1199 -1533 1535 0
629 1199 -1535 0
629 1533 -1535 0
1199 1533 -1535 0
-630 -1200 -1536 0
630 1200 -1536 0
-630 1200 1536 0
630 -1200 1536 0
-1536 -1535 -1484 0
1536 1535 -1484 0
-1536 1535 1484 0
1536 -1535 1484 0
-630 -1200 1537 0
-630 -1535 1537 0
-1200 -1535 1537 0
630 1200 -1537 0
630 1535 -1537 0
1200 1535 -1537 0
-631 -1201 -1538 0
631 1201 -1538 0
-631 1201 1538 0
631 -1201 1538 0
-1538 -1537 -1485 0
1538 1537 -1485 0
-1538 1537 1485 0
1538 -1537 1485 0
-631 -1201 1539 0
-631 -1537 1539 0
-1201 -1537 1539 0
631 1201 -1539 0
631 1537 -1539 0
1201 1537 -1539 0
-632 -1202 -1540 0
632 1202 -1540 0
-632 1202 1540 0
632 -1202 1540 0
-1540 -1539 -1486 0
1540 1539 -1486 0
-1540 1539 1486 0
1540 -1539 1486 0
-632 -1202 1541 0
-632 -1539 1541 0
-1202 -1539 1541 0
632 1202 -1541 0
632 1539 -1541 0
1202 1539 -1541 0
-633 -1203 -1542 0
633 1203 -1542 0
-633 1203 1542 0
633 -1203 1542 0
-1542 -1541 -1487 0
1542 1541 -1487 0
-1542 1541 1487 0
1542 -1541 1487 0
-633 -1203 1543 0
-633 -1541 1543 0
-1203 -1541 1543 0
633 1203 -1543 0
633 1541 -1543 0
1203 1541 -1543 0
-634 -1204 -1544 0
634 1204 -1544 0
-634 1204 1544 0
634 -1204 1544 0
-1544 -1543 -1488 0
1544 1543 -1488 0
-1544 1543 1488 0
1544 -1543 1488 0
-634 -1204 1545 0
-634 -1543 1545 0
-1204 -1543 1545 0
634 1204 -1545 0
634 1543 -1545 0
1204 1543 -1545 0
-635 -1205 -1546 0
635 1205 -1546 0
-635 1205 1546 0
635 -1205 1546 0
-1546 -1545 -1489 0
1546 1545 -1489 0
-1546 1545 1489 0
1546 -1545 1489 0
-635 -1205 1547 0
-635 -1545 1547 0
-1205 -1545 1547 0
635 1205 -1547 0
635 1545 -1547 0
1205 1545 -1547 0
-636 -1206 -1548 0
636 1206 -1548 0
-636 1206 1548 0
636 -1206 1548 0
-1548 -1547 -1490 0
1548 1547 -1490 0
-1548 1547 1490 0
1548 -1547 1490 0
-636 -1206 1549 0
-636 -1547 1549 0
-1206 -1547 1549 0
636 1206 -1549 0
636 1547 -1549 0
1206 1547 -1549 0
-637 -1207 -1550 0
637 1207 -1550 0
-637 1207 1550 0
637 -1207 1550 0
-1550 -1549 -1491 0
1550 1549 -1491 0
-1550 1549 1491 0
1550 -1549 1491 0
-637 -1207 1551 0
-637 -1549 1551 0
-1207 -1549 1551 0
637 1207 -1551 0
637 1549 -1551 0
1207 1549 -1551 0
-638 -1208 -1552 0
638 1208 -1552 0
-638 1208 1552 0
638 -1208 1552 0
-1552 -1551 -1492 0
1552 1551 -1492 0
-1552 1551 1492 0
1552 -1551 1492 0
-638 -1208 1553 0
-638 -1551 1553 0
-1208 -1551 1553 0
638 1208 -1553 0
638 1551 -1553 0
1208 1551 -1553 0
-639 -1209 -1554 0
639 1209 -1554 0
-639 1209 1554 0
639 -1209 1554 0
-1554 -1553 -1493 0
1554 1553 -1493 0
-1554 1553 1493 0
1554 -1553 1493 0
-639 -1209 1555 0
-639 -1553 1555 0
-1209 -1553 1555 0
639 1209 -1555 0
639 1553 -1555 0
1209 1553 -1555 0
-640 -1210 -1556 0
640 1210 -1556 0
-640 1210 1556 0
640 -1210 1556 0
-1556 -1555 -1494 0
1556 1555 -1494 0
-1556 1555 1494 0
1556 -1555 1494 0
-1179 -1369 -1557 0
1179 1369 -1557 0
-1179 1369 1557 0
1179 -1369 1557 0
-1179 -1369 1589 0
1179 -1589 0
1369 -1589 0
-1180 -1370 -1590 0
1180 1370 -1590 0
-1180 1370 1590 0
1180 -1370 1590 0
-1590 -1589 -1558 0
1590 1589 -1558 0
-1590 1589 1558 0
1590 -1589 1558 0
-1180 -1370 1591 0
-1180 -1589 1591 0
-1370 -1589 1591 0
1180 1370 -1591 0
1180 1589 -1591 0
1370 1589 -1591 0
-1181 -1371 -1592 0
1181 1371 -1592 0
-1181 1371 1592 0
1181 -1371 1592 0
-1592 -1591 -1559 0
1592 1591 -1559 0
-1592 1591 1559 0
1592 -1591 1559 0
-1181 -1371 1593 0
-1181 -1591 1593 0
-1371 -1591 1593 0
1181 1371 -1593 0
1181 1591 -1593 0
1371 1591 -1593 0
-1182 -1372 -1594 0
1182 1372 -1594 0
-1182 1372 1594 0
1182 -1372 1594 0
-1594 -1593 -1560 0
1594 1593 -1560 0
-1594 1593 1560 0
1594 -1593 1560 0
-1182 -1372 1595 0
-1182 -1593 1595 0
-1372 -1593 1595 0
1182 1372 -1595 0
1182 1593 -1595 0
1372 1593 -1595 0
-1183 -1373 -1596 0
1183 1373 -1596 0
-1183 1373 1596 0
1183 -1373 1596 0
-1596 -1595 -1561 0
1596 1595 -1561 0
-1596 1595 1561 0
1596 -1595 1561 0
-1183 -1373 1597 0
-1183 -1595 1597 0
-1373 -1595 1597 0
1183 1373 -1597 0
1183 1595 -1597 0
1373 1595 -1597 0
-1184 -1374 -1598 0
1184 1374 -1598 0
-1184 1374 1598 0
1184 -1374 1598 0
-1598 -1597 -1562 0
1598 1597 -1562 0
-1598 1597 1562 0
1598 -1597 1562 0
-1184 -1374 1599 0
-1184 -1597 1599 0
-1374 -1597 1599 0
1184 1374 -1599 0
1184 1597 -1599 0
1374 1597 -1599 0
-1185 -1375 -1600 0
1185 1375 -1600 0
-1185 1375 1600 0
1185 -1375 1600 0
-1600 -1599 -1563 0
1600 1599 -1563 0
-1600 1599 1563 0
1600 -1599 1563 0
-1185 -1375 1601 0
-1185 -1599 1601 0
-1375 -1599 1601 0
1185 1375 -1601 0
1185 1599 -1601 0
1375 1599 -1601 0
-1186 -1376 -1602 0
1186 1376 -1602 0
-1186 1376 1602 0
1186 -1376 1602 0
-1602 -1601 -1564 0
1602 1601 -1564 0
-1602 1601 1564 0
1602 -1601 1564 0
-1186 -1376 1603 0
-1186 -1601 1603 0
-1376 -1601 1603 0
1186 1376 -1603 0
1186 1601 -1603 0
1376 1601 -1603 0
-1187 -1377 -1604 0
1187 1377 -1604 0
-1187 1377 1604 0
1187 -1377 1604 0
-1604 -1603 -1565 0
1604 1603 -1565 0
-1604 1603 1565 0
1604 -1603 1565 0
-1187 -1377 1605 0
-1187 -1603 1605 0
-1377 -1603 1605 0
1187 1377 -1605 0
1187 1603 -1605 0
1377 1603 -1605 0
-1188 -1378 -1606 0
1188 1378 -1606 0
-1188 1378 1606 0
1188 -1378 1606 0
-1606 -1605 -1566 0
1606 1605 -1566 0
-1606 1605 1566 0
1606 -1605 1566 0
-1188 -1378 1607 0
-1188 -1605 1607 0
-1378 -1605 1607 0
1188 1378 -1607 0
1188 1605 -1607 0
1378 1605 -1607 0
-1189 -1379 -1608 0
1189 1379 -1608 0
-1189 1379 1608 0
1189 -1379 1608 0
-1608 -1607 -1567 0
1608 1607 -1567 0
-1608 1607 1567 0
1608 -1607 1567 0
-1189 -1379 1609 0
-1189 -1607 1609 0
-1379 -1607 1609 0
1189 1379 -1609 0
1189 1607 -1609 0
1379 1607 -1609 0
-1190 -1380 -1610 0
1190 1380 -1610 0
-1190 1380 1610 0
1190 -1380 1610 0
-1610 -1609 -1568 0
1610 1609 -1568 0
-1610 1609 1568 0
1610 -1609 1568 0
-1190 -1380 1611 0
-1190 -1609 1611 0
-1380 -1609 1611 0
1190 1380 -1611 0
1190 1609 -1611 0
1380 1609 -1611 0
-1191 -1381 -1612 0
1191 1381 -1612 0
-1191 1381 1612 0
1191 -1381 1612 0
-1612 -1611 -1569 0
1612 1611 -1569 0
-1612 1611 1569 0
1612 -1611 1569 0
-1191 -1381 1613 0
-1191 -1611 1613 0
-1381 -1611 1613 0
1191 1381 -1613 0
1191 1611 -1613 0
1381 1611 -1613 0
-1192 -1382 -1614 0
1192 1382 -1614 0
-1192 1382 1614 0
1192 -1382 1614 0
-1614 -1613 -1570 0
1614 1613 -1570 0
-1614 1613 1570 0
1614 -1613 1570 0
-1192 -1382 1615 0
-1192 -1613 1615 0
-1382 -1613 1615 0
1192 1382 -1615 0
1192 1613 -1615 0
1382 1613 -1615 0
-1193 -1383 -1616 0
1193 1383 -1616 0
-1193 1383 1616 0
1193 -1383 1616 0
-1616 -1615 -1571 0
1616 1615 -1571 0
-1616 1615 1571 0
1616 -1615 1571 0
-1193 -1383 1617 0
-1193 -1615 1617 0
-1383 -1615 1617 0
1193 1383 -1617 0
1193 1615 -1617 0
1383 1615 -1617 0
-1194 -1384 -1618 0
1194 1384 -1618 0
-1194 1384 1618 0
1194 -1384 1618 0
-1618 -1617 -1572 0
1618 1617 -1572 0
-1618 1617 1572 0
1618 -1617 1572 0
-1194 -1384 1619 0
-1194 -1617 1619 0
-1384 -1617 1619 0
1194 1384 -1619 0
1194 1617 -1619 0
1384 1617 -1619 0
-1195 -1385 -1620 0
1195 1385 -1620 0
-1195 1385 1620 0
1195 -1385 1620 0
-1620 -1619 -1573 0
1620 1619 -1573 0
-1620 1619 1573 0
1620 -1619 1573 0
-1195 -1385 1621 0
-1195 -1619 1621 0
-1385 -1619 1621 0
1195 1385 -1621 0
1195 1619 -1621 0
1385 1619 -1621 0
-1196 -1386 -1622 0
1196 1386 -1622 0
-1196 1386 1622 0
1196 -1386 1622 0
-1622 -1621 -1574 0
1622 1621 -1574 0
-1622 1621 1574 0
1622 -1621 1574 0
-1196 -1386 1623 0
-1196 -1621 1623 0
-1386 -1621 1623 0
1196 1386 -1623 0
1196 1621 -1623 0
1386 1621 -1623 0
-1197 -1387 -1624 0
1197 1387 -1624 0
-1197 1387 1624 0
1197 -1387 1624 0
-1624 -1623 -1575 0
1624 1623 -1575 0
-1624 1623 1575 0
1624 -1623 1575 0
-1197 -1387 1625 0
-1197 -1623 1625 0
-1387 -1623 1625 0
1197 1387 -1625 0
1197 1623 -1625 0
1387 1623 -1625 0
-1198 -1388 -1626 0
1198 1388 -1626 0
-1198 1388 1626 0
1198 -1388 1626 0
-1626 -1625 -1576 0
1626 1625 -1576 0
-1626 1625 1576 0
1626 -1625 1576 0
-1198 -1388 1627 0
-1198 -1625 1627 0
-1388 -1625 1627 0
1198 1388 -1627 0
1198 1625 -1627 0
1388 1625 -1627 0
-1199 -1389 -1628 0
1199 1389 -1628 0
-1199 1389 1628 0
1199 -1389 1628 0
-1628 -1627 -1577 0
1628 1627 -1577 0
-1628 1627 1577 0
1628 -1627 1577 0
-1199 -1389 1629 0
-1199 -1627 1629 0
-1389 -1627 1629 0
1199 1389 -1629 0
1199 1627 -1629 0
1389 1627 -1629 0
-1200 -1390 -1630 0
1200 1390 -1630 0
-1200 1390 1630 0
1200 -1390 1630 0
-1630 -1629 -1578 0
1630 1629 -1578 0
-1630 1629 1578 0
1630 -1629 1578 0
-1200 -1390 1631 0
-1200 -1629 1631 0
-1390 -1629 1631 0
1200 1390 -1631 0
1200 1629 -1631 0
1390 1629 -1631 0
-1201 -1391 -1632 0
1201 1391 -1632 0
-1201 1391 1632 0
1201 -1391 1632 0
-1632 -1631 -1579 0
1632 1631 -1579 0
-1632 1631 1579 0
1632 -1631 1579 0
-1201 -1391 1633 0
-1201 -1631 1633 0
-1391 -1631 1633 0
1201 1391 -1633 0
1201 1631 -1633 0
1391 1631 -1633 0
-1202 -1392 -1634 0
1202 1392 -1634 0
-1202 1392 1634 0
1202 -1392 1634 0
-1634 -1633 -1580 0
1634 1633 -1580 0
-1634 1633 1580 0
1634 -1633 1580 0
-1202 -1392 1635 0
-1202 -1633 1635 0
-1392 -1633 1635 0
1202 1392 -1635 0
1202 1633 -1635 0
1392 1633 -1635 0
-1203 -1393 -1636 0
1203 1393 -1636 0
-1203 1393 1636 0
1203 -1393 1636 0
-1636 -1635 -1581 0
1636 1635 -1581 0
-1636 1635 1581 0
1636 -1635 1581 0
-1203 -1393 1637 0
-1203 -1635 1637 0
-1393 -1635 1637 0
1203 1393 -1637 0
1203 1635 -1637 0
1393 1635 -1637 0
-1204 -1394 -1638 0
1204 1394 -1638 0
-1204 1394 1638 0
1204 -1394 1638 0
-1638 -1637 -1582 0
1638 1637 -1582 0
-1638 1637 1582 0
1638 -1637 1582 0
-1204 -1394 1639 0
-1204 -1637 1639 0
-1394 -1637 1639 0
1204 1394 -1639 0
1204 1637 -1639 0
1394 1637 -1639 0
-1205 -1395 -1640 0
1205 1395 -1640 0
-1205 1395 1640 0
1205 -1395 1640 0
-1640 -1639 -1583 0
1640 1639 -1583 0
-1640 1639 1583 0
1640 -1639 1583 0
-1205 -1395 1641 0
-1205 -1639 1641 0
-1395 -1639 1641 0
1205 1395 -1641 0
1205 1639 -1641 0
1395 1639 -1641 0
-1206 -1396 -1642 0
1206 1396 -1642 0
-1206 1396 1642 0
1206 -1396 1642 0
-1642 -1641 -1584 0
1642 1641 -1584 0
-1642 1641 1584 0
1642 -1641 1584 0
-1206 -1396 1643 0
-1206 -1641 1643 0
-1396 -1641 1643 0
1206 1396 -1643 0
1206 1641 -1643 0
1396 1641 -1643 0
-1207 -1397 -1644 0
1207 1397 -1644 0
-1207 1397 1644 0
1207 -1397 1644 0
-1644 -1643 -1585 0
1644 1643 -1585 0
-1644 1643 1585 0
1644 -1643 1585 0
-1207 -1397 1645 0
-1207 -1643 1645 0
-1397 -1643 1645 0
1207 1397 -1645 0
1207 1643 -1645 0
1397 1643 -1645 0
-1208 -1398 -1646 0
1208 1398 -1646 0
-1208 1398 1646 0
1208 -1398 1646 0
-1646 -1645 -1586 0
1646 1645 -1586 0
-1646 1645 1586 0
1646 -1645 1586 0
-1208 -1398 1647 0
-1208 -1645 1647 0
-1398 -1645 1647 0
1208 1398 -1647 0
1208 1645 -1647 0
1398 1645 -1647 0
-1209 -1399 -1648 0
1209 1399 -1648 0
-1209 1399 1648 0
1209 -1399 1648 0
-1648 -1647 -1587 0
1648 1647 -1587 0
-1648 1647 1587 0
1648 -1647 1587 0
-1209 -1399 1649 0
-1209 -1647 1649 0
-1399 -1647 1649 0
1209 1399 -1649 0
1209 1647 -1649 0
1399 1647 -1649 0
-1210 -1400 -1650 0
1210 1400 -1650 0
-1210 1400 1650 0
1210 -1400 1650 0
-1650 -1649 -1588 0
1650 1649 -1588 0
-1650 1649 1588 0
1650 -1649 1588 0
-1469 -1474 -1683 0
1469 1474 -1683 0
-1469 1474 1683 0
1469 -1474 1683 0
-1683 -1488 -1651 0
1683 1488 -1651 0
-1683 1488 1651 0
1683 -1488 1651 0
-1470 -1475 -1684 0
1470 1475 -1684 0
-1470 1475 1684 0
1470 -1475 1684 0
-1684 -1489 -1652 0
1684 1489 -1652 0
-1684 1489 1652 0
1684 -1489 1652 0
-1471 -1476 -1685 0
1471 1476 -1685 0
-1471 1476 1685 0
1471 -1476 1685 0
-1685 -1490 -1653 0
1685 1490 -1653 0
-1685 1490 1653 0
1685 -1490 1653 0
-1472 -1477 -1686 0
1472 1477 -1686 0
-1472 1477 1686 0
1472 -1477 1686 0
-1686 -1491 -1654 0
1686 1491 -1654 0
-1686 1491 1654 0
1686 -1491 1654 0
-1473 -1478 -1687 0
1473 1478 -1687 0
-1473 1478 1687 0
1473 -1478 1687 0
-1687 -1492 -1655 0
1687 1492 -1655 0
-1687 1492 1655 0
1687 -1492 1655 0
-1474 -1479 -1688 0
1474 1479 -1688 0
-1474 1479 1688 0
1474 -1479 1688 0
-1688 -1493 -1656 0
1688 1493 -1656 0
-1688 1493 1656 0
1688 -1493 1656 0
-1475 -1480 -1689 0
1475 1480 -1689 0
-1475 1480 1689 0
1475 -1480 1689 0
-1689 -1494 -1657 0
1689 1494 -1657 0
-1689 1494 1657 0
1689 -1494 1657 0
-1476 -1481 -1690 0
1476 1481 -1690 0
-1476 1481 1690 0
1476 -1481 1690 0
-1690 -1463 -1658 0
1690 1463 -1658 0
-1690 1463 1658 0
1690 -1463 1658 0
-1477 -1482 -1691 0
1477 1482 -1691 0
-1477 1482 1691 0
1477 -1482 1691 0
-1691 -1464 -1659 0
1691 1464 -1659 0
-1691 1464 1659 0
1691 -1464 1659 0
-1478 -1483 -1692 0
1478 1483 -1692 0
-1478 1483 1692 0
1478 -1483 1692 0
-1692 -1465 -1660 0
1692 1465 -1660 0
-1692 1465 1660 0
1692 -1465 1660 0
-1479 -1484 -1693 0
1479 1484 -1693 0
-1479 1484 1693 0
1479 -1484 1693 0
-1693 -1466 -1661 0
1693 1466 -1661 0
-1693 1466 1661 0
1693 -1466 1661 0
-1480 -1485 -1694 0
1480 1485 -1694 0
-1480 1485 1694 0
1480 -1485 1694 0
-1694 -1467 -1662 0
1694 1467 -1662 0
-1694 1467 1662 0
1694 -1467 1662 0
-1481 -1486 -1695 0
1481 1486 -1695 0
-1481 1486 1695 0
1481 -1486 1695 0
-1695 -1468 -1663 0
1695 1468 -1663 0
-1695 1468 1663 0
1695 -1468 1663 0
-1482 -1487 -1696 0
1482 1487 -1696 0
-1482 1487 1696 0
1482 -1487 1696 0
-1696 -1469 -1664 0
1696 1469 -1664 0
-1696 1469 1664 0
1696 -1469 1664 0
-1483 -1488 -1697 0
1483 1488 -1697 0
-1483 1488 1697 0
1483 -1488 1697 0
-1697 -1470 -1665 0
1697 1470 -1665 0
-1697 1470 1665 0
1697 -1470 1665 0
-1484 -1489 -1698 0
1484 1489 -1698 0
-1484 1489 1698 0
1484 -1489 1698 0
-1698 -1471 -1666 0
1698 1471 -1666 0
-1698 1471 1666 0
1698 -1471 1666 0
-1485 -1490 -1699 0
1485 1490 -1699 0
-1485 1490 1699 0
1485 -1490 1699 0
-1699 -1472 -1667 0
1699 1472 -1667 0
-1699 1472 1667 0
1699 -1472 1667 0
-1486 -1491 -1700 0
1486 1491 -1700 0
-1486 1491 1700 0
1486 -1491 1700 0
-1700 -1473 -1668 0
1700 1473 -1668 0
-1700 1473 1668 0
1700 -1473 1668 0
-1487 -1492 -1701 0
1487 1492 -1701 0
-1487 1492 1701 0
1487 -1492 1701 0
-1701 -1474 -1669 0
1701 1474 -1669 0
-1701 1474 1669 0
1701 -1474 1669 0
-1488 -1493 -1702 0
1488 1493 -1702 0
-1488 1493 1702 0
1488 -1493 1702 0
-1702 -1475 -1670 0
1702 1475 -1670 0
-1702 1475 1670 0
1702 -1475 1670 0
-1489 -1494 -1703 0
1489 1494 -1703 0
-1489 1494 1703 0
1489 -1494 1703 0
-1703 -1476 -1671 0
1703 1476 -1671 0
-1703 1476 1671 0
1703 -1476 1671 0
-1490 -1463 -1704 0
1490 1463 -1704 0
-1490 1463 1704 0
1490 -1463 1704 0
-1704 -1477 -1672 0
1704 1477 -1672 0
-1704 1477 1672 0
1704 -1477 1672 0
-1491 -1464 -1705 0
1491 1464 -1705 0
-1491 1464 1705 0
1491 -1464 1705 0
-1705 -1478 -1673 0
1705 1478 -1673 0
-1705 1478 1673 0
1705 -1478 1673 0
-1492 -1465 -1706 0
1492 1465 -1706 0
-1492 1465 1706 0
1492 -1465 1706 0
-1706 -1479 -1674 0
1706 1479 -1674 0
-1706 1479 1674 0
1706 -1479 1674 0
-1493 -1466 -1707 0
1493 1466 -1707 0
-1493 1466 1707 0
1493 -1466 1707 0
-1707 -1480 -1675 0
1707 1480 -1675 0
-1707 1480 1675 0
1707 -1480 1675 0
-1494 -1467 -1708 0
1494 1467 -1708 0
-1494 1467 1708 0
1494 -1467 1708 0
-1708 -1481 -1676 0
1708 1481 -1676 0
-1708 1481 1676 0
1708 -1481 1676 0
-1463 -1468 -1709 0
1463 1468 -1709 0
-1463 1468 1709 0
1463 -1468 1709 0
-1709 -1482 -1677 0
1709 1482 -1677 0
-1709 1482 1677 0
1709 -1482 1677 0
-1464 -1469 -1710 0
1464 1469 -1710 0
-1464 1469 1710 0
1464 -1469 1710 0
-1710 -1483 -1678 0
1710 1483 -1678 0
-1710 1483 1678 0
1710 -1483 1678 0
-1465 -1470 -1711 0
1465 1470 -1711 0
-1465 1470 1711 0
1465 -1470 1711 0
-1711 -1484 -1679 0
1711 1484 -1679 0
-1711 1484 1679 0
1711 -1484 1679 0
-1466 -1471 -1712 0
1466 1471 -1712 0
-1466 1471 1712 0
1466 -1471 1712 0
-1712 -1485 -1680 0
1712 1485 -1680 0
-1712 1485 1680 0
1712 -1485 1680 0
-1467 -1472 -1713 0
1467 1472 -1713 0
-1467 1472 1713 0
1467 -1472 1713 0
-1713 -1486 -1681 0
1713 1486 -1681 0
-1713 1486 1681 0
1713 -1486 1681 0
-1468 -1473 -1714 0
1468 1473 -1714 0
-1468 1473 1714 0
1468 -1473 1714 0
-1714 -1487 -1682 0
1714 1487 -1682 0
-1714 1487 1682 0
1714 -1487 1682 0
-1463 -641 1715 0
-1463 641 -1715 0
1463 -673 1715 0
1463 673 -1715 0
-1464 -642 1716 0
-1464 642 -1716 0
1464 -674 1716 0
1464 674 -1716 0
-1465 -643 1717 0
-1465 643 -1717 0
1465 -675 1717 0
1465 675 -1717 0
-1466 -644 1718 0
-1466 644 -1718 0
1466 -676 1718 0
1466 676 -1718 0
-1467 -645 1719 0
-1467 645 -1719 0
1467 -677 1719 0
1467 677 -1719 0
-1468 -646 1720 0
-1468 646 -1720 0
1468 -678 1720 0
1468 678 -1720 0
-1469 -647 1721 0
-1469 647 -1721 0
1469 -679 1721 0
1469 679 -1721 0
-1470 -648 1722 0
-1470 648 -1722 0
1470 -680 1722 0
1470 680 -1722 0
-1471 -649 1723 0
-1471 649 -1723 0
1471 -681 1723 0
1471 681 -1723 0
-1472 -650 1724 0
-1472 650 -1724 0
1472 -682 1724 0
1472 682 -1724 0
-1473 -651 1725 0
-1473 651 -1725 0
1473 -683 1725 0
1473 683 -1725 0
-1474 -652 1726 0
-1474 652 -1726 0
1474 -684 1726 0
1474 684 -1726 0
-1475 -653 1727 0
-1475 653 -1727 0
1475 -685 1727 0
1475 685 -1727 0
-1476 -654 1728 0
-1476 654 -1728 0
1476 -686 1728 0
1476 686 -1728 0
-1477 -655 1729 0
-1477 655 -1729 0
1477 -687 1729 0
1477 687 -1729 0
-1478 -656 1730 0
-1478 656 -1730 0
1478 -688 1730 0
1478 688 -1730 0
-1479 -657 1731 0
-1479 657 -1731 0
1479 -689 1731 0
1479 689 -1731 0
-1480 -658 1732 0
-1480 658 -1732 0
1480 -690 1732 0
1480 690 -1732 0
-1481 -659 1733 0
-1481 659 -1733 0
1481 -691 1733 0
1481 691 -1733 0
-1482 -660 1734 0
-1482 660 -1734 0
1482 -692 1734 0
1482 692 -1734 0
-1483 -661 1735 0
-1483 661 -1735 0
1483 -693 1735 0
1483 693 -1735 0
-1484 -662 1736 0
-1484 662 -1736 0
1484 -694 1736 0
1484 694 -1736 0
-1485 -663 1737 0
-1485 663 -1737 0
1485 -695 1737 0
1485 695 -1737 0
-1486 -664 1738 0
-1486 664 -1738 0
1486 -696 1738 0
1486 696 -1738 0
-1487 -665 1739 0
-1487 665 -1739 0
1487 -697 1739 0
1487 697 -1739 0
-1488 -666 1740 0
-1488 666 -1740 0
1488 -698 1740 0
1488 698 -1740 0
-1489 -667 1741 0
-1489 667 -1741 0
1489 -699 1741 0
1489 699 -1741 0
-1490 -668 1742 0
-1490 668 -1742 0
1490 -700 1742 0
1490 700 -1742 0
-1491 -669 1743 0
-1491 669 -1743 0
1491 -701 1743 0
1491 701 -1743 0
-1492 -670 1744 0
-1492 670 -1744 0
1492 -702 1744 0
1492 702 -1744 0
-1493 -671 1745 0
-1493 671 -1745 0
1493 -703 1745 0
1493 703 -1745 0
-1494 -672 1746 0
-1494 672 -1746 0
1494 -704 1746 0
1494 704 -1746 0
-705 -1651 -1747 0
705 1651 -1747 0
-705 1651 1747 0
705 -1651 1747 0
-705 -1651 1779 0
705 -1779 0
1651 -1779 0
-706 -1652 -1780 0
706 1652 -1780 0
-706 1652 1780 0
706 -1652 1780 0
-1780 -1779 -1748 0
1780 1779 -1748 0
-1780 1779 1748 0
1780 -1779 1748 0
-706 -1652 1781 0
-706 -1779 1781 0
-1652 -1779 1781 0
706 1652 -1781 0
706 1779 -1781 0
1652 1779 -1781 0
-707 -1653 -1782 0
707 1653 -1782 0
-707 1653 1782 0
707 -1653 1782 0
-1782 -1781 -1749 0
1782 1781 -1749 0
-1782 1781 1749 0
1782 -1781 1749 0
-707 -1653 1783 0
-707 -1781 1783 0
-1653 -1781 1783 0
707 1653 -1783 0
707 1781 -1783 0
1653 1781 -1783 0
-708 -1654 -1784 0
708 1654 -1784 0
-708 1654 1784 0
708 -1654 1784 0
-1784 -1783 -1750 0
1784 1783 -1750 0
-1784 1783 1750 0
1784 -1783 1750 0
-708 -1654 1785 0
-708 -1783 1785 0
-1654 -1783 1785 0
708 1654 -1785 0
708 1783 -1785 0
1654 1783 -1785 0
-709 -1655 -1786 0
709 1655 -1786 0
-709 1655 1786 0
709 -1655 1786 0
-1786 -1785 -1751 0
1786 1785 -1751 0
-1786 1785 1751 0
1786 -1785 1751 0
-709 -1655 1787 0
-709 -1785 1787 0
-1655 -1785 1787 0
709 1655 -1787 0
709 1785 -1787 0
1655 1785 -1787 0
-710 -1656 -1788 0
710 1656 -1788 0
-710 1656 1788 0
710 -1656 1788 0
-1788 -1787 -1752 0
1788 1787 -1752 0
-1788 1787 1752 0
1788 -1787 1752 0
-710 -1656 1789 0
-710 -1787 1789 0
-1656 -1787 1789 0
710 1656 -1789 0
710 1787 -1789 0
1656 1787 -1789 0
-711 -1657 -1790 0
711 1657 -1790 0
-711 1657 1790 0
711 -1657 1790 0
-1790 -1789 -1753 0
1790 1789 -1753 0
-1790 1789 1753 0
1790 -1789 1753 0
-711 -1657 1791 0
-711 -1789 1791 0
-1657 -1789 1791 0
711 1657 -1791 0
711 1789 -1791 0
1657 1789 -1791 0
-712 -1658 -1792 0
712 1658 -1792 0
-712 1658 1792 0
712 -1658 1792 0
-1792 -1791 -1754 0
1792 1791 -1754 0
-1792 1791 1754 0
1792 -1791 1754 0
-712 -1658 1793 0
-712 -1791 1793 0
-1658 -1791 1793 0
712 1658 -1793 0
712 1791 -1793 0
1658 1791 -1793 0
-713 -1659 -1794 0
713 1659 -1794 0
-713 1659 1794 0
713 -1659 1794 0
-1794 -1793 -1755 0
1794 1793 -1755 0
-1794 1793 1755 0
1794 -1793 1755 0
-713 -1659 1795 0
-713 -1793 1795 0
-1659 -1793 1795 0
713 1659 -1795 0
713 1793 -1795 0
1659 1793 -1795 0
-714 -1660 -1796 0
714 1660 -1796 0
-714 1660 1796 0
714 -1660 1796 0
-1796 -1795 -1756 0
1796 1795 -1756 0
-1796 1795 1756 0
1796 -1795 1756 0
-714 -1660 1797 0
-714 -1795 1797 0
-1660 -1795 1797 0
714 1660 -1797 0
714 1795 -1797 0
1660 1795 -1797 0
-715 -1661 -1798 0
715 1661 -1798 0
-715 1661 1798 0
715 -1661 1798 0
-1798 -1797 -1757 0
1798 1797 -1757 0
-1798 1797 1757 0
1798 -1797 1757 0
-715 -1661 1799 0
-715 -1797 1799 0
-1661 -1797 1799 0
715 1661 -1799 0
715 1797 -1799 0
1661 1797 -1799 0
-716 -1662 -1800 0
716 1662 -1800 0
-716 1662 1800 0
716 -1662 1800 0
-1800 -1799 -1758 0
1800 1799 -1758 0
-1800 1799 1758 0
1800 -1799 1758 0
-716 -1662 1801 0
-716 -1799 1801 0
-1662 -1799 1801 0
716 1662 -1801 0
716 1799 -1801 0
1662 1799 -1801 0
-717 -1663 -1802 0
717 1663 -1802 0
-717 1663 1802 0
717 -1663 1802 0
-1802 -1801 -1759 0
1802 1801 -1759 0
-1802 1801 1759 0
1802 -1801 1759 0
-717 -1663 1803 0
-717 -1801 1803 0
-1663 -1801 1803 0
717 1663 -1803 0
717 1801 -1803 0
1663 1801 -1803 0
-718 -1664 -1804 0
718 1664 -1804 0
-718 1664 1804 0
718 -1664 1804 0
-1804 -1803 -1760 0
1804 1803 -1760 0
-1804 1803 1760 0
1804 -1803 1760 0
-718 -1664 1805 0
-718 -1803 1805 0
-1664 -1803 1805 0
718 1664 -1805 0
718 1803 -1805 0
1664 1803 -1805 0
-719 -1665 -1806 0
719 1665 -1806 0
-719 1665 1806 0
719 -1665 1806 0
-1806 -1805 -1761 0
1806 1805 -1761 0
-1806 1805 1761 0
1806 -1805 1761 0
-719 -1665 1807 0
-719 -1805 1807 0
-1665 -1805 1807 0
719 1665 -1807 0
719 1805 -1807 0
1665 1805 -1807 0
-720 -1666 -1808 0
720 1666 -1808 0
-720 1666 1808 0
720 -1666 1808 0
-1808 -1807 -1762 0
1808 1807 -1762 0
-1808 1807 1762 0
1808 -1807 1762 0
-720 -1666 1809 0
-720 -1807 1809 0
-1666 -1807 1809 0
720 1666 -1809 0
720 1807 -1809 0
1666 1807 -1809 0
-721 -1667 -1810 0
721 1667 -1810 0
-721 1667 1810 0
721 -1667 1810 0
-1810 -1809 -1763 0
1810 1809 -1763 0
-1810 1809 1763 0
1810 -1809 1763 0
-721 -1667 1811 0
-721 -1809 1811 0
-1667 -1809 1811 0
721 1667 -1811 0
721 1809 -1811 0
1667 1809 -1811 0
-722 -1668 -1812 0
722 1668 -1812 0
-722 1668 1812 0
722 -1668 1812 0
-1812 -1811 -1764 0
1812 1811 -1764 0
-1812 1811 1764 0
1812 -1811 1764 0
-722 -1668 1813 0
-722 -1811 1813 0
-1668 -1811 1813 0
722 1668 -1813 0
722 1811 -1813 0
1668 1811 -1813 0
-723 -1669 -1814 0
723 1669 -1814 0
-723 1669 1814 0
723 -1669 1814 0
-1814 -1813 -1765 0
1814 1813 -1765 0
-1814 1813 1765 0
1814 -1813 1765 0
-723 -1669 1815 0
-723 -1813 1815 0
-1669 -1813 1815 0
723 1669 -1815 0
723 1813 -1815 0
1669 1813 -1815 0
-724 -1670 -1816 0
724 1670 -1816 0
-724 1670 1816 0
724 -1670 1816 0
-1816 -1815 -1766 0
1816 1815 -1766 0
-1816 1815 1766 0
1816 -1815 1766 0
-724 -1670 1817 0
-724 -1815 1817 0
-1670 -1815 1817 0
724 1670 -1817 0
724 1815 -1817 0
1670 1815 -1817 0
-725 -1671 -1818 0
725 1671 -1818 0
-725 1671 1818 0
725 -1671 1818 0
-1818 -1817 -1767 0
1818 1817 -1767 0
-1818 1817 1767 0
1818 -1817 1767 0
-725 -1671 1819 0
-725 -1817 1819 0
-1671 -1817 1819 0
725 1671 -1819 0
725 1817 -1819 0
1671 1817 -1819 0
-726 -1672 -1820 0
726 1672 -1820 0
-726 1672 1820 0
726 -1672 1820 0
-1820 -1819 -1768 0
1820 1819 -1768 0
-1820 1819 1768 0
1820 -1819 1768 0
-726 -1672 1821 0
-726 -1819 1821 0
-1672 -1819 1821 0
726 1672 -1821 0
726 1819 -1821 0
1672 1819 -1821 0
-727 -1673 -1822 0
727 1673 -1822 0
-727 1673 1822 0
727 -1673 1822 0
-1822 -1821 -1769 0
1822 1821 -1769 0
-1822 1821 1769 0
1822 -1821 1769 0
-727 -1673 1823 0
-727 -1821 1823 0
-1673 -1821 1823 0
727 1673 -1823 0
727 1821 -1823 0
1673 1821 -1823 0
-728 -1674 -1824 0
728 1674 -1824 0
-728 1674 1824 0
728 -1674 1824 0
-1824 -1823 -1770 0
1824 1823 -1770 0
-1824 1823 1770 0
1824 -1823 1770 0
-728 -1674 1825 0
-728 -1823 1825 0
-1674 -1823 1825 0
728 1674 -1825 0
728 1823 -1825 0
1674 1823 -1825 0
-729 -1675 -1826 0
729 1675 -1826 0
-729 1675 1826 0
729 -1675 1826 0
-1826 -1825 -1771 0
1826 1825 -1771 0
-1826 1825 1771 0
1826 -1825 1771 0
-729 -1675 1827 0
-729 -1825 1827 0
-1675 -1825 1827 0
729 1675 -1827 0
729 1825 -1827 0
1675 1825 -1827 0
-730 -1676 -1828 0
730 1676 -1828 0
-730 1676 1828 0
730 -1676 1828 0
-1828 -1827 -1772 0
1828 1827 -1772 0
-1828 1827 1772 0
1828 -1827 1772 0
-730 -1676 1829 0
-730 -1827 1829 0
-1676 -1827 1829 0
730 1676 -1829 0
730 1827 -1829 0
1676 1827 -1829 0
-731 -1677 -1830 0
731 1677 -1830 0
-731 1677 1830 0
731 -1677 1830 0
-1830 -1829 -1773 0
1830 1829 -1773 0
-1830 1829 1773 0
1830 -1829 1773 0
-731 -1677 1831 0
-731 -1829 1831 0
-1677 -1829 1831 0
731 1677 -1831 0
731 1829 -1831 0
1677 1829 -1831 0
-732 -1678 -1832 0
732 1678 -1832 0
-732 1678 1832 0
732 -1678 1832 0
-1832 -1831 -1774 0
1832 1831 -1774 0
-1832 1831 1774 0
1832 -1831 1774 0
-732 -1678 1833 0
-732 -1831 1833 0
-1678 -1831 1833 0
732 1678 -1833 0
732 1831 -1833 0
1678 1831 -1833 0
-733 -1679 -1834 0
733 1679 -1834 0
-733 1679 1834 0
733 -1679 1834 0
-1834 -1833 -1775 0
1834 1833 -1775 0
-1834 1833 1775 0
1834 -1833 1775 0
-733 -1679 1835 0
-733 -1833 1835 0
-1679 -1833 1835 0
733 1679 -1835 0
733 1833 -1835 0
1679 1833 -1835 0
-734 -1680 -1836 0
734 1680 -1836 0
-734 1680 1836 0
734 -1680 1836 0
-1836 -1835 -1776 0
1836 1835 -1776 0
-1836 1835 1776 0
1836 -1835 1776 0
-734 -1680 1837 0
-734 -1835 1837 0
-1680 -1835 1837 0
734 1680 -1837 0
734 1835 -1837 0
1680 1835 -1837 0
-735 -1681 -1838 0
735 1681 -1838 0
-735 1681 1838 0
735 -1681 1838 0
-1838 -1837 -1777 0
1838 1837 -1777 0
-1838 1837 1777 0
1838 -1837 1777 0
-735 -1681 1839 0
-735 -1837 1839 0
-1681 -1837 1839 0
735 1681 -1839 0
735 1837 -1839 0
1681 1837 -1839 0
-736 -1682 -1840 0
736 1682 -1840 0
-736 1682 1840 0
736 -1682 1840 0
-1840 -1839 -1778 0
1840 1839 -1778 0
-1840 1839 1778 0
1840 -1839 1778 0
-1715 -33 -1841 0
1715 33 -1841 0
-1715 33 1841 0
1715 -33 1841 0
-1715 -33 1873 0
1715 -1873 0
33 -1873 0
-1716 -34 -1874 0
1716 34 -1874 0
-1716 34 1874 0
1716 -34 1874 0
-1874 -1873 -1842 0
1874 1873 -1842 0
-1874 1873 1842 0
1874 -1873 1842 0
-1716 -34 1875 0
-1716 -1873 1875 0
-34 -1873 1875 0
1716 34 -1875 0
1716 1873 -1875 0
34 1873 -1875 0
-1717 -35 -1876 0
1717 35 -1876 0
-1717 35 1876 0
1717 -35 1876 0
-1876 -1875 -1843 0
1876 1875 -1843 0
-1876 1875 1843 0
1876 -1875 1843 0
-1717 -35 1877 0
-1717 -1875 1877 0
-35 -1875 1877 0
1717 35 -1877 0
1717 1875 -1877 0
35 1875 -1877 0
-1718 -36 -1878 0
1718 36 -1878 0
-1718 36 1878 0
1718 -36 1878 0
-1878 -1877 -1844 0
1878 1877 -1844 0
-1878 1877 1844 0
1878 -1877 1844 0
-1718 -36 1879 0
-1718 -1877 1879 0
-36 -1877 1879 0
1718 36 -1879 0
1718 1877 -1879 0
36 1877 -1879 0
-1719 -37 -1880 0
1719 37 -1880 0
-1719 37 1880 0
1719 -37 1880 0
-1880 -1879 -1845 0
1880 1879 -1845 0
-1880 1879 1845 0
1880 -1879 1845 0
-1719 -37 1881 0
-1719 -1879 1881 0
-37 -1879 1881 0
1719 37 -1881 0
1719 1879 -1881 0
37 1879 -1881 0
-1720 -38 -1882 0
1720 38 -1882 0
-1720 38 1882 0
1720 -38 1882 0
-1882 -1881 -1846 0
1882 1881 -1846 0
-1882 1881 1846 0
1882 -1881 1846 0
-1720 -38 1883 0
-1720 -1881 1883 0
-38 -1881 1883 0
1720 38 -1883 0
1720 1881 -1883 0
38 1881 -1883 0
-1721 -39 -1884 0
1721 39 -1884 0
-1721 39 1884 0
1721 -39 1884 0
-1884 -1883 -1847 0
1884 1883 -1847 0
-1884 1883 1847 0
1884 -1883 1847 0
-1721 -39 1885 0
-1721 -1883 1885 0
-39 -1883 1885 0
1721 39 -1885 0
1721 1883 -1885 0
39 1883 -1885 0
-1722 -40 -1886 0
1722 40 -1886 0
-1722 40 1886 0
1722 -40 1886 0
-1886 -1885 -1848 0
1886 1885 -1848 0
-1886 1885 1848 0
1886 -1885 1848 0
-1722 -40 1887 0
-1722 -1885 1887 0
-40 -1885 1887 0
1722 40 -1887 0
1722 1885 -1887 0
40 1885 -1887 0
-1723 -41 -1888 0
1723 41 -1888 0
-1723 41 1888 0
1723 -41 1888 0
-1888 -1887 -1849 0
1888 1887 -1849 0
-1888 1887 1849 0
1888 -1887 1849 0
-1723 -41 1889 0
-1723 -1887 1889 0
-41 -1887 1889 0
1723 41 -1889 0
1723 1887 -1889 0
41 1887 -1889 0
-1724 -42 -1890 0
1724 42 -1890 0
-1724 42 1890 0
1724 -42 1890 0
-1890 -1889 -1850 0
1890 1889 -1850 0
-1890 1889 1850 0
1890 -1889 1850 0
-1724 -42 1891 0
-1724 -1889 1891 0
-42 -1889 1891 0
1724 42 -1891 0
1724 1889 -1891 0
42 1889 -1891 0
-1725 -43 -1892 0
1725 43 -1892 0
-1725 43 1892 0
1725 -43 1892 0
-1892 -1891 -1851 0
1892 1891 -1851 0
-1892 1891 1851 0
1892 -1891 1851 0
-1725 -43 1893 0
-1725 -1891 1893 0
-43 -1891 1893 0
1725 43 -1893 0
1725 1891 -1893 0
43 1891 -1893 0
-1726 -44 -1894 0
1726 44 -1894 0
-1726 44 1894 0
1726 -44 1894 0
-1894 -1893 -1852 0
1894 1893 -1852 0
-1894 1893 1852 0
1894 -1893 1852 0
-1726 -44 1895 0
-1726 -1893 1895 0
-44 -1893 1895 0
1726 44 -1895 0
1726 1893 -1895 0
44 1893 -1895 0
-1727 -45 -1896 0
1727 45 -1896 0
-1727 45 1896 0
1727 -45 1896 0
-1896 -1895 -1853 0
1896 1895 -1853 0
-1896 1895 1853 0
1896 -1895 1853 0
-1727 -45 1897 0
-1727 -1895 1897 0
-45 -1895 1897 0
1727 45 -1897 0
1727 1895 -1897 0
45 1895 -1897 0
-1728 -46 -1898 0
1728 46 -1898 0
-1728 46 1898 0
1728 -46 1898 0
-1898 -1897 -1854 0
1898 1897 -1854 0
-1898 1897 1854 0
1898 -1897 1854 0
-1728 -46 1899 0
-1728 -1897 1899 0
-46 -1897 1899 0
1728 46 -1899 0
1728 1897 -1899 0
46 1897 -1899 0
-1729 -47 -1900 0
1729 47 -1900 0
-1729 47 1900 0
1729 -47 1900 0
-1900 -1899 -1855 0
1900 1899 -1855 0
-1900 1899 1855 0
1900 -1899 1855 0
-1729 -47 1901 0
-1729 -1899 1901 0
-47 -1899 1901 0
1729 47 -1901 0
1729 1899 -1901 0
47 1899 -1901 0
-1730 -48 -1902 0
1730 48 -1902 0
-1730 48 1902 0
1730 -48 1902 0
-1902 -1901 -1856 0
1902 1901 -1856 0
-1902 1901 1856 0
1902 -1901 1856 0
-1730 -48 1903 0
-1730 -1901 1903 0
-48 -1901 1903 0
1730 48 -1903 0
1730 1901 -1903 0
48 1901 -1903 0
-1731 -49 -1904 0
1731 49 -1904 0
-1731 49 1904 0
1731 -49 1904 0
-1904 -1903 -1857 0
1904 1903 -1857 0
-1904 1903 1857 0
1904 -1903 1857 0
-1731 -49 1905 0
-1731 -1903 1905 0
-49 -1903 1905 0
1731 49 -1905 0
1731 1903 -1905 0
49 1903 -1905 0
-1732 -50 -1906 0
1732 50 -1906 0
-1732 50 1906 0
1732 -50 1906 0
-1906 -1905 -1858 0
1906 1905 -1858 0
-1906 1905 1858 0
1906 -1905 1858 0
-1732 -50 1907 0
-1732 -1905 1907 0
-50 -1905 1907 0
1732 50 -1907 0
1732 1905 -1907 0
50 1905 -1907 0
-1733 -51 -1908 0
1733 51 -1908 0
-1733 51 1908 0
1733 -51 1908 0
-1908 -1907 -1859 0
1908 1907 -1859 0
-1908 1907 1859 0
1908 -1907 1859 0
-1733 -51 1909 0
-1733 -1907 1909 0
-51 -1907 1909 0
1733 51 -1909 0
1733 1907 -1909 0
51 1907 -1909 0
-1734 -52 -1910 0
1734 52 -1910 0
-1734 52 1910 0
1734 -52 1910 0
-1910 -1909 -1860 0
1910 1909 -1860 0
-1910 1909 1860 0
1910 -1909 1860 0
-1734 -52 1911 0
-1734 -1909 1911 0
-52 -1909 1911 0
1734 52 -1911 0
1734 1909 -1911 0
52 1909 -1911 0
-1735 -53 -1912 0
1735 53 -1912 0
-1735 53 1912 0
1735 -53 1912 0
-1912 -1911 -1861 0
1912 1911 -1861 0
-1912 1911 1861 0
1912 -1911 1861 0
-1735 -53 1913 0
-1735 -1911 1913 0
-53 -1911 1913 0
1735 53 -1913 0
1735 1911 -1913 0
53 1911 -1913 0
-1736 -54 -1914 0
1736 54 -1914 0
-1736 54 1914 0
1736 -54 1914 0
-1914 -1913 -1862 0
1914 1913 -1862 0
-1914 1913 1862 0
1914 -1913 1862 0
-1736 -54 1915 0
-1736 -1913 1915 0
-54 -1913 1915 0
1736 54 -1915 0
1736 1913 -1915 0
54 1913 -1915 0
-1737 -55 -1916 0
1737 55 -1916 0
-1737 55 1916 0
1737 -55 1916 0
-1916 -1915 -1863 0
1916 1915 -1863 0
-1916 1915 1863 0
1916 -1915 1863 0
-1737 -55 1917 0
-1737 -1915 1917 0
-55 -1915 1917 0
1737 55 -1917 0
1737 1915 -1917 0
55 1915 -1917 0
-1738 -56 -1918 0
1738 56 -1918 0
-1738 56 1918 0
1738 -56 1918 0
-1918 -1917 -1864 0
1918 1917 -1864 0
-1918 1917 1864 0
1918 -1917 1864 0
-1738 -56 1919 0
-1738 -1917 1919 0
-56 -1917 1919 0
1738 56 -1919 0
1738 1917 -1919 0
56 1917 -1919 0
-1739 -57 -1920 0
1739 57 -1920 0
-1739 57 1920 0
1739 -57 1920 0
-1920 -1919 -1865 0
1920 1919 -1865 0
-1920 1919 1865 0
1920 -1919 1865 0
-1739 -57 1921 0
-1739 -1919 1921 0
-57 -1919 1921 0
1739 57 -1921 0
1739 1919 -1921 0
57 1919 -1921 0
-1740 -58 -1922 0
1740 58 -1922 0
-1740 58 1922 0
1740 -58 1922 0
-1922 -1921 -1866 0
1922 1921 -1866 0
-1922 1921 1866 0
1922 -1921 1866 0
-1740 -58 1923 0
-1740 -1921 1923 0
-58 -1921 1923 0
1740 58 -1923 0
1740 1921 -1923 0
58 1921 -1923 0
-1741 -59 -1924 0
1741 59 -1924 0
-1741 59 1924 0
1741 -59 1924 0
-1924 -1923 -1867 0
1924 1923 -1867 0
-1924 1923 1867 0
1924 -1923 1867 0
-1741 -59 1925 0
-1741 -1923 1925 0
-59 -1923 1925 0
1741 59 -1925 0
1741 1923 -1925 0
59 1923 -1925 0
-1742 -60 -1926 0
1742 60 -1926 0
-1742 60 1926 0
1742 -60 1926 0
-1926 -1925 -1868 0
1926 1925 -1868 0
-1926 1925 1868 0
1926 -1925 1868 0
-1742 -60 1927 0
-1742 -1925 1927 0
-60 -1925 1927 0
1742 60 -1927 0
1742 1925 -1927 0
60 1925 -1927 0
-1743 -61 -1928 0
1743 61 -1928 0
-1743 61 1928 0
1743 -61 1928 0
-1928 -1927 -1869 0
1928 1927 -1869 0
-1928 1927 1869 0
1928 -1927 1869 0
-1743 -61 1929 0
-1743 -1927 1929 0
-61 -1927 1929 0
1743 61 -1929 0
1743 1927 -1929 0
61 1927 -1929 0
-1744 -62 -1930 0
1744 62 -1930 0
-1744 62 1930 0
1744 -62 1930 0
-1930 -1929 -1870 0
1930 1929 -1870 0
-1930 1929 1870 0
1930 -1929 1870 0
-1744 -62 1931 0
-1744 -1929 1931 0
-62 -1929 1931 0
1744 62 -1931 0
1744 1929 -1931 0
62 1929 -1931 0
-1745 -63 -1932 0
1745 63 -1932 0
-1745 63 1932 0
1745 -63 1932 0
-1932 -1931 -1871 0
1932 1931 -1871 0
-1932 1931 1871 0
1932 -1931 1871 0
-1745 -63 1933 0
-1745 -1931 1933 0
-63 -1931 1933 0
1745 63 -1933 0
1745 1931 -1933 0
63 1931 -1933 0
-1746 -64 -1934 0
1746 64 -1934 0
-1746 64 1934 0
1746 -64 1934 0
-1934 -1933 -1872 0
1934 1933 -1872 0
-1934 1933 1872 0
1934 -1933 1872 0
1935 0
-1936 0
-1937 0
-1938 0
1939 0
-1940 0
-1941 0
1942 0
-1943 0
-1944 0
1945 0
-1946 0
-1947 0
-1948 0
1949 0
-1950 0
1951 0
1952 0
1953 0
-1954 0
1955 0
1956 0
-1957 0
-1958 0
1959 0
-1960 0
-1961 0
-1962 0
1963 0
1964 0
1965 0
-1966 0
-1747 -1935 -1967 0
1747 1935 -1967 0
-1747 1935 1967 0
1747 -1935 1967 0
-1747 -1935 1999 0
1747 -1999 0
1935 -1999 0
-1748 -1936 -2000 0
1748 1936 -2000 0
-1748 1936 2000 0
1748 -1936 2000 0
-2000 -1999 -1968 0
2000 1999 -1968 0
-2000 1999 1968 0
2000 -1999 1968 0
-1748 -1936 2001 0
-1748 -1999 2001 0
-1936 -1999 2001 0
1748 1936 -2001 0
1748 1999 -2001 0
1936 1999 -2001 0
-1749 -1937 -2002 0
1749 1937 -2002 0
-1749 1937 2002 0
1749 -1937 2002 0
-2002 -2001 -1969 0
2002 2001 -1969 0
-2002 2001 1969 0
2002 -2001 1969 0
-1749 -1937 2003 0
-1749 -2001 2003 0
-1937 -2001 2003 0
1749 1937 -2003 0
1749 2001 -2003 0
1937 2001 -2003 0
-1750 -1938 -2004 0
1750 1938 -2004 0
-1750 1938 2004 0
1750 -1938 2004 0
-2004 -2003 -1970 0
2004 2003 -1970 0
-2004 2003 1970 0
2004 -2003 1970 0
-1750 -1938 2005 0
-1750 -2003 2005 0
-1938 -2003 2005 0
1750 1938 -2005 0
1750 2003 -2005 0
1938 2003 -2005 0
-1751 -1939 -2006 0
1751 1939 -2006 0
-1751 1939 2006 0
1751 -1939 2006 0
-2006 -2005 -1971 0
2006 2005 -1971 0
-2006 2005 1971 0
2006 -2005 1971 0
-1751 -1939 2007 0
-1751 -2005 2007 0
-1939 -2005 2007 0
1751 1939 -2007 0
1751 2005 -2007 0
1939 2005 -2007 0
-1752 -1940 -2008 0
1752 1940 -2008 0
-1752 1940 2008 0
1752 -1940 2008 0
-2008 -2007 -1972 0
2008 2007 -1972 0
-2008 2007 1972 0
2008 -2007 1972 0
-1752 -1940 2009 0
-1752 -2007 2009 0
-1940 -2007 2009 0
1752 1940 -2009 0
1752 2007 -2009 0
1940 2007 -2009 0
-1753 -1941 -2010 0
1753 1941 -2010 0
-1753 1941 2010 0
1753 -1941 2010 0
-2010 -2009 -1973 0
2010 2009 -1973 0
-2010 2009 1973 0
2010 -2009 1973 0
-1753 -1941 2011 0
-1753 -2009 2011 0
-1941 -2009 2011 0
1753 1941 -2011 0
1753 2009 -2011 0
1941 2009 -2011 0
-1754 -1942 -2012 0
1754 1942 -2012 0
-1754 1942 2012 0
1754 -1942 2012 0
-2012 -2011 -1974 0
2012 2011 -1974 0
-2012 2011 1974 0
2012 -2011 1974 0
-1754 -1942 2013 0
-1754 -2011 2013 0
-1942 -2011 2013 0
1754 1942 -2013 0
1754 2011 -2013 0
1942 2011 -2013 0
-1755 -1943 -2014 0
1755 1943 -2014 0
-1755 1943 2014 0
1755 -1943 2014 0
-2014 -2013 -1975 0
2014 2013 -1975 0
-2014 2013 1975 0
2014 -2013 1975 0
-1755 -1943 2015 0
-1755 -2013 2015 0
-1943 -2013 2015 0
1755 1943 -2015 0
1755 2013 -2015 0
1943 2013 -2015 0
-1756 -1944 -2016 0
1756 1944 -2016 0
-1756 1944 2016 0
1756 -1944 2016 0
-2016 -2015 -1976 0
2016 2015 -1976 0
-2016 2015 1976 0
2016 -2015 1976 0
-1756 -1944 2017 0
-1756 -2015 2017 0
-1944 -2015 2017 0
1756 1944 -2017 0
1756 2015 -2017 0
1944 2015 -2017 0
-1757 -1945 -2018 0
1757 1945 -2018 0
-1757 1945 2018 0
1757 -1945 2018 0
-2018 -2017 -1977 0
2018 2017 -1977 0
-2018 2017 1977 0
2018 -2017 1977 0
-1757 -1945 2019 0
-1757 -2017 2019 0
-1945 -2017 2019 0
1757 1945 -2019 0
1757 2017 -2019 0
1945 2017 -2019 0
-1758 -1946 -2020 0
1758 1946 -2020 0
-1758 1946 2020 0
1758 -1946 2020 0
-2020 -2019 -1978 0
2020 2019 -1978 0
-2020 2019 1978 0
2020 -2019 1978 0
-1758 -1946 2021 0
-1758 -2019 2021 0
-1946 -2019 2021 0
1758 1946 -2021 0
1758 2019 -2021 0
1946 2019 -2021 0
-1759 -1947 -2022 0
1759 1947 -2022 0
-1759 1947 2022 0
1759 -1947 2022 0
-2022 -2021 -1979 0
2022 2021 -1979 0
-2022 2021 1979 0
2022 -2021 1979 0
-1759 -1947 2023 0
-1759 -2021 2023 0
-1947 -2021 2023 0
1759 1947 -2023 0
1759 2021 -2023 0
1947 2021 -2023 0
-1760 -1948 -2024 0
1760 1948 -2024 0
-1760 1948 2024 0
1760 -1948 2024 0
-2024 -2023 -1980 0
2024 2023 -1980 0
-2024 2023 1980 0
2024 -2023 1980 0
-1760 -1948 2025 0
-1760 -2023 2025 0
-1948 -2023 2025 0
1760 1948 -2025 0
1760 2023 -2025 0
1948 2023 -2025 0
-1761 -1949 -2026 0
1761 1949 -2026 0
-1761 1949 2026 0
1761 -1949 2026 0
-2026 -2025 -1981 0
2026 2025 -1981 0
-2026 2025 1981 0
2026 -2025 1981 0
-1761 -1949 2027 0
-1761 -2025 2027 0
-1949 -2025 2027 0
1761 1949 -2027 0
1761 2025 -2027 0
1949 2025 -2027 0
-1762 -1950 -2028 0
1762 1950 -2028 0
-1762 1950 2028 0
1762 -1950 2028 0
-2028 -2027 -1982 0
2028 2027 -1982 0
-2028 2027 1982 0
2028 -2027 1982 0
-1762 -1950 2029 0
-1762 -2027 2029 0
-1950 -2027 2029 0
1762 1950 -2029 0
1762 2027 -2029 0
1950 2027 -2029 0
-1763 -1951 -2030 0
1763 1951 -2030 0
-1763 1951 2030 0
1763 -1951 2030 0
-2030 -2029 -1983 0
2030 2029 -1983 0
-2030 2029 1983 0
2030 -2029 1983 0
-1763 -1951 2031 0
-1763 -2029 2031 0
-1951 -2029 2031 0
1763 1951 -2031 0
1763 2029 -2031 0
1951 2029 -2031 0
-1764 -1952 -2032 0
1764 1952 -2032 0
-1764 1952 2032 0
1764 -1952 2032 0
-2032 -2031 -1984 0
2032 2031 -1984 0
-2032 2031 1984 0
2032 -2031 1984 0
-1764 -1952 2033 0
-1764 -2031 2033 0
-1952 -2031 2033 0
1764 1952 -2033 0
1764 2031 -2033 0
1952 2031 -2033 0
-1765 -1953 -2034 0
1765 1953 -2034 0
-1765 1953 2034 0
1765 -1953 2034 0
-2034 -2033 -1985 0
2034 2033 -1985 0
-2034 2033 1985 0
2034 -2033 1985 0
-1765 -1953 2035 0
-1765 -2033 2035 0
-1953 -2033 2035 0
1765 1953 -2035 0
1765 2033 -2035 0
1953 2033 -2035 0
-1766 -1954 -2036 0
1766 1954 -2036 0
-1766 1954 2036 0
1766 -1954 2036 0
-2036 -2035 -1986 0
2036 2035 -1986 0
-2036 2035 1986 0
2036 -2035 1986 0
-1766 -1954 2037 0
-1766 -2035 2037 0
-1954 -2035 2037 0
1766 1954 -2037 0
1766 2035 -2037 0
1954 2035 -2037 0
-1767 -1955 -2038 0
1767 1955 -2038 0
-1767 1955 2038 0
1767 -1955 2038 0
-2038 -2037 -1987 0
2038 2037 -1987 0
-2038 2037 1987 0
2038 -2037 1987 0
-1767 -1955 2039 0
-1767 -2037 2039 0
-1955 -2037 2039 0
1767 1955 -2039 0
1767 2037 -2039 0
1955 2037 -2039 0
-1768 -1956 -2040 0
1768 1956 -2040 0
-1768 1956 2040 0
1768 -1956 2040 0
-2040 -2039 -1988 0
2040 2039 -1988 0
-2040 2039 1988 0
2040 -2039 1988 0
-1768 -1956 2041 0
-1768 -2039 2041 0
-1956 -2039 2041 0
1768 1956 -2041 0
1768 2039 -2041 0
1956 2039 -2041 0
-1769 -1957 -2042 0
1769 1957 -2042 0
-1769 1957 2042 0
1769 -1957 2042 0
-2042 -2041 -1989 0
2042 2041 -1989 0
-2042 2041 1989 0
2042 -2041 1989 0
-1769 -1957 2043 0
-1769 -2041 2043 0
-1957 -2041 2043 0
1769 1957 -2043 0
1769 2041 -2043 0
1957 2041 -2043 0
-1770 -1958 -2044 0
1770 1958 -2044 0
-1770 1958 2044 0
1770 -1958 2044 0
-2044 -2043 -1990 0
2044 2043 -1990 0
-2044 2043 1990 0
2044 -2043 1990 0
-1770 -1958 2045 0
-1770 -2043 2045 0
-1958 -2043 2045 0
1770 1958 -2045 0
1770 2043 -2045 0
1958 2043 -2045 0
-1771 -1959 -2046 0
1771 1959 -2046 0
-1771 1959 2046 0
1771 -1959 2046 0
-2046 -2045 -1991 0
2046 2045 -1991 0
-2046 2045 1991 0
2046 -2045 1991 0
-1771 -1959 2047 0
-1771 -2045 2047 0
-1959 -2045 2047 0
1771 1959 -2047 0
1771 2045 -2047 0
1959 2045 -2047 0
-1772 -1960 -2048 0
1772 1960 -2048 0
-1772 1960 2048 0
1772 -1960 2048 0
-2048 -2047 -1992 0
2048 2047 -1992 0
-2048 2047 1992 0
2048 -2047 1992 0
-1772 -1960 2049 0
-1772 -2047 2049 0
-1960 -2047 2049 0
1772 1960 -2049 0
1772 2047 -2049 0
1960 2047 -2049 0
-1773 -1961 -2050 0
1773 1961 -2050 0
-1773 1961 2050 0
1773 -1961 2050 0
-2050 -2049 -1993 0
2050 2049 -1993 0
-2050 2049 1993 0
2050 -2049 1993 0
-1773 -1961 2051 0
-1773 -2049 2051 0
-1961 -2049 2051 0
1773 1961 -2051 0
1773 2049 -2051 0
1961 2049 -2051 0
-1774 -1962 -2052 0
1774 1962 -2052 0
-1774 1962 2052 0
1774 -1962 2052 0
-2052 -2051 -1994 0
2052 2051 -1994 0
-2052 2051 1994 0
2052 -2051 1994 0
-1774 -1962 2053 0
-1774 -2051 2053 0
-1962 -2051 2053 0
1774 1962 -2053 0
1774 2051 -2053 0
1962 2051 -2053 0
-1775 -1963 -2054 0
1775 1963 -2054 0
-1775 1963 2054 0
1775 -1963 2054 0
-2054 -2053 -1995 0
2054 2053 -1995 0
-2054 2053 1995 0
2054 -2053 1995 0
-1775 -1963 2055 0
-1775 -2053 2055 0
-1963 -2053 2055 0
1775 1963 -2055 0
1775 2053 -2055 0
1963 2053 -2055 0
-1776 -1964 -2056 0
1776 1964 -2056 0
-1776 1964 2056 0
1776 -1964 2056 0
-2056 -2055 -1996 0
2056 2055 -1996 0
-2056 2055 1996 0
2056 -2055 1996 0
-1776 -1964 2057 0
-1776 -2055 2057 0
-1964 -2055 2057 0
1776 1964 -2057 0
1776 2055 -2057 0
1964 2055 -2057 0
-1777 -1965 -2058 0
1777 1965 -2058 0
-1777 1965 2058 0
1777 -1965 2058 0
-2058 -2057 -1997 0
2058 2057 -1997 0
-2058 2057 1997 0
2058 -2057 1997 0
-1777 -1965 2059 0
-1777 -2057 2059 0
-1965 -2057 2059 0
1777 1965 -2059 0
1777 2057 -2059 0
1965 2057 -2059 0
-1778 -1966 -2060 0
1778 1966 -2060 0
-1778 1966 2060 0
1778 -1966 2060 0
-2060 -2059 -1998 0
2060 2059 -1998 0
-2060 2059 1998 0
2060 -2059 1998 0
-1841 -1967 -2061 0
1841 1967 -2061 0
-1841 1967 2061 0
1841 -1967 2061 0
-1841 -1967 2093 0
1841 -2093 0
1967 -2093 0
-1842 -1968 -2094 0
1842 1968 -2094 0
-1842 1968 2094 0
1842 -1968 2094 0
-2094 -2093 -2062 0
2094 2093 -2062 0
-2094 2093 2062 0
2094 -2093 2062 0
-1842 -1968 2095 0
-1842 -2093 2095 0
-1968 -2093 2095 0
1842 1968 -2095 0
1842 2093 -2095 0
1968 2093 -2095 0
-1843 -1969 -2096 0
1843 1969 -2096 0
-1843 1969 2096 0
1843 -1969 2096 0
-2096 -2095 -2063 0
2096 2095 -2063 0
-2096 2095 2063 0
2096 -2095 2063 0
-1843 -1969 2097 0
-1843 -2095 2097 0
-1969 -2095 2097 0
1843 1969 -2097 0
1843 2095 -2097 0
1969 2095 -2097 0
-1844 -1970 -2098 0
1844 1970 -2098 0
-1844 1970 2098 0
1844 -1970 2098 0
-2098 -2097 -2064 0
2098 2097 -2064 0
-2098 2097 2064 0
2098 -2097 2064 0
-1844 -1970 2099 0
-1844 -2097 2099 0
-1970 -2097 2099 0
1844 1970 -2099 0
1844 2097 -2099 0
1970 2097 -2099 0
-1845 -1971 -2100 0
1845 1971 -2100 0
-1845 1971 2100 0
1845 -1971 2100 0
-2100 -2099 -2065 0
2100 2099 -2065 0
-2100 2099 2065 0
2100 -2099 2065 0
-1845 -1971 2101 0
-1845 -2099 2101 0
-1971 -2099 2101 0
1845 1971 -2101 0
1845 2099 -2101 0
1971 2099 -2101 0
-1846 -1972 -2102 0
1846 1972 -2102 0
-1846 1972 2102 0
1846 -1972 2102 0
-2102 -2101 -2066 0
2102 2101 -2066 0
-2102 2101 2066 0
2102 -2101 2066 0
-1846 -1972 2103 0
-1846 -2101 2103 0
-1972 -2101 2103 0
1846 1972 -2103 0
1846 2101 -2103 0
1972 2101 -2103 0
-1847 -1973 -2104 0
1847 1973 -2104 0
-1847 1973 2104 0
1847 -1973 2104 0
-2104 -2103 -2067 0
2104 2103 -2067 0
-2104 2103 2067 0
2104 -2103 2067 0
-1847 -1973 2105 0
-1847 -2103 2105 0
-1973 -2103 2105 0
1847 1973 -2105 0
1847 2103 -2105 0
1973 2103 -2105 0
-1848 -1974 -2106 0
1848 1974 -2106 0
-1848 1974 2106 0
1848 -1974 2106 0
-2106 -2105 -2068 0
2106 2105 -2068 0
-2106 2105 2068 0
2106 -2105 2068 0
-1848 -1974 2107 0
-1848 -2105 2107 0
-1974 -2105 2107 0
1848 1974 -2107 0
1848 2105 -2107 0
1974 2105 -2107 0
-1849 -1975 -2108 0
1849 1975 -2108 0
-1849 1975 2108 0
1849 -1975 2108 0
-2108 -2107 -2069 0
2108 2107 -2069 0
-2108 2107 2069 0
2108 -2107 2069 0
-1849 -1975 2109 0
-1849 -2107 2109 0
-1975 -2107 2109 0
1849 1975 -2109 0
1849 2107 -2109 0
1975 2107 -2109 0
-1850 -1976 -2110 0
1850 1976 -2110 0
-1850 1976 2110 0
1850 -1976 2110 0
-2110 -2109 -2070 0
2110 2109 -2070 0
-2110 2109 2070 0
2110 -2109 2070 0
-1850 -1976 2111 0
-1850 -2109 2111 0
-1976 -2109 2111 0
1850 1976 -2111 0
1850 2109 -2111 0
1976 2109 -2111 0
-1851 -1977 -2112 0
1851 1977 -2112 0
-1851 1977 2112 0
1851 -1977 2112 0
-2112 -2111 -2071 0
2112 2111 -2071 0
-2112 2111 2071 0
2112 -2111 2071 0
-1851 -1977 2113 0
-1851 -2111 2113 0
-1977 -2111 2113 0
1851 1977 -2113 0
1851 2111 -2113 0
1977 2111 -2113 0
-1852 -1978 -2114 0
1852 1978 -2114 0
-1852 1978 2114 0
1852 -1978 2114 0
-2114 -2113 -2072 0
2114 2113 -2072 0
-2114 2113 2072 0
2114 -2113 2072 0
-1852 -1978 2115 0
-1852 -2113 2115 0
-1978 -2113 2115 0
1852 1978 -2115 0
1852 2113 -2115 0
1978 2113 -2115 0
-1853 -1979 -2116 0
1853 1979 -2116 0
-1853 1979 2116 0
1853 -1979 2116 0
-2116 -2115 -2073 0
2116 2115 -2073 0
-2116 2115 2073 0
2116 -2115 2073 0
-1853 -1979 2117 0
-1853 -2115 2117 0
-1979 -2115 2117 0
1853 1979 -2117 0
1853 2115 -2117 0
1979 2115 -2117 0
-1854 -1980 -2118 0
1854 1980 -2118 0
-1854 1980 2118 0
1854 -1980 2118 0
-2118 -2117 -2074 0
2118 2117 -2074 0
-2118 2117 2074 0
2118 -2117 2074 0
-1854 -1980 2119 0
-1854 -2117 2119 0
-1980 -2117 2119 0
1854 1980 -2119 0
1854 2117 -2119 0
1980 2117 -2119 0
-1855 -1981 -2120 0
1855 1981 -2120 0
-1855 1981 2120 0
1855 -1981 2120 0
-2120 -2119 -2075 0
2120 2119 -2075 0
-2120 2119 2075 0
2120 -2119 2075 0
-1855 -1981 2121 0
-1855 -2119 2121 0
-1981 -2119 2121 0
1855 1981 -2121 0
1855 2119 -2121 0
1981 2119 -2121 0
-1856 -1982 -2122 0
1856 1982 -2122 0
-1856 1982 2122 0
1856 -1982 2122 0
-2122 -2121 -2076 0
2122 2121 -2076 0
-2122 2121 2076 0
2122 -2121 2076 0
-1856 -1982 2123 0
-1856 -2121 2123 0
-1982 -2121 2123 0
1856 1982 -2123 0
1856 2121 -2123 0
1982 2121 -2123 0
-1857 -1983 -2124 0
1857 1983 -2124 0
-1857 1983 2124 0
1857 -1983 2124 0
-2124 -2123 -2077 0
2124 2123 -2077 0
-2124 2123 2077 0
2124 -2123 2077 0
-1857 -1983 2125 0
-1857 -2123 2125 0
-1983 -2123 2125 0
1857 1983 -2125 0
1857 2123 -2125 0
1983 2123 -2125 0
-1858 -1984 -2126 0
1858 1984 -2126 0
-1858 1984 2126 0
1858 -1984 2126 0
-2126 -2125 -2078 0
2126 2125 -2078 0
-2126 2125 2078 0
2126 -2125 2078 0
-1858 -1984 2127 0
-1858 -2125 2127 0
-1984 -2125 2127 0
1858 1984 -2127 0
1858 2125 -2127 0
1984 2125 -2127 0
-1859 -1985 -2128 0
1859 1985 -2128 0
-1859 1985 2128 0
1859 -1985 2128 0
-2128 -2127 -2079 0
2128 2127 -2079 0
-2128 2127 2079 0
2128 -2127 2079 0
-1859 -1985 2129 0
-1859 -2127 2129 0
-1985 -2127 2129 0
1859 1985 -2129 0
1859 2127 -2129 0
1985 2127 -2129 0
-1860 -1986 -2130 0
1860 1986 -2130 0
-1860 1986 2130 0
1860 -1986 2130 0
-2130 -2129 -2080 0
2130 2129 -2080 0
-2130 2129 2080 0
2130 -2129 2080 0
-1860 -1986 2131 0
-1860 -2129 2131 0
-1986 -2129 2131 0
1860 1986 -2131 0
1860 2129 -2131 0
1986 2129 -2131 0
-1861 -1987 -2132 0
1861 1987 -2132 0
-1861 1987 2132 0
1861 -1987 2132 0
-2132 -2131 -2081 0
2132 2131 -2081 0
-2132 2131 2081 0
2132 -2131 2081 0
-1861 -1987 2133 0
-1861 -2131 2133 0
-1987 -2131 2133 0
1861 1987 -2133 0
1861 2131 -2133 0
1987 2131 -2133 0
-1862 -1988 -2134 0
1862 1988 -2134 0
-1862 1988 2134 0
1862 -1988 2134 0
-2134 -2133 -2082 0
2134 2133 -2082 0
-2134 2133 2082 0
2134 -2133 2082 0
-1862 -1988 2135 0
-1862 -2133 2135 0
-1988 -2133 2135 0
1862 1988 -2135 0
1862 2133 -2135 0
1988 2133 -2135 0
-1863 -1989 -2136 0
1863 1989 -2136 0
-1863 1989 2136 0
1863 -1989 2136 0
-2136 -2135 -2083 0
2136 2135 -2083 0
-2136 2135 2083 0
2136 -2135 2083 0
-1863 -1989 2137 0
-1863 -2135 2137 0
-1989 -2135 2137 0
1863 1989 -2137 0
1863 2135 -2137 0
1989 2135 -2137 0
-1864 -1990 -2138 0
1864 1990 -2138 0
-1864 1990 2138 0
1864 -1990 2138 0
-2138 -2137 -2084 0
2138 2137 -2084 0
-2138 2137 2084 0
2138 -2137 2084 0
-1864 -1990 2139 0
-1864 -2137 2139 0
-1990 -2137 2139 0
1864 1990 -2139 0
1864 2137 -2139 0
1990 2137 -2139 0
-1865 -1991 -2140 0
1865 1991 -2140 0
-1865 1991 2140 0
1865 -1991 2140 0
-2140 -2139 -2085 0
2140 2139 -2085 0
-2140 2139 2085 0
2140 -2139 2085 0
-1865 -1991 2141 0
-1865 -2139 2141 0
-1991 -2139 2141 0
1865 1991 -2141 0
1865 2139 -2141 0
1991 2139 -2141 0
-1866 -1992 -2142 0
1866 1992 -2142 0
-1866 1992 2142 0
1866 -1992 2142 0
-2142 -2141 -2086 0
2142 2141 -2086 0
-2142 2141 2086 0
2142 -2141 2086 0
-1866 -1992 2143 0
-1866 -2141 2143 0
-1992 -2141 2143 0
1866 1992 -2143 0
1866 2141 -2143 0
1992 2141 -2143 0
-1867 -1993 -2144 0
1867 1993 -2144 0
-1867 1993 2144 0
1867 -1993 2144 0
-2144 -2143 -2087 0
2144 2143 -2087 0
-2144 2143 2087 0
2144 -2143 2087 0
-1867 -1993 2145 0
-1867 -2143 2145 0
-1993 -2143 2145 0
1867 1993 -2145 0
1867 2143 -2145 0
1993 2143 -2145 0
-1868 -1994 -2146 0
1868 1994 -2146 0
-1868 1994 2146 0
1868 -1994 2146 0
-2146 -2145 -2088 0
2146 2145 -2088 0
-2146 2145 2088 0
2146 -2145 2088 0
-1868 -1994 2147 0
-1868 -2145 2147 0
-1994 -2145 2147 0
1868 1994 -2147 0
1868 2145 -2147 0
1994 2145 -2147 0
-1869 -1995 -2148 0
1869 1995 -2148 0
-1869 1995 2148 0
1869 -1995 2148 0
-2148 -2147 -2089 0
2148 2147 -2089 0
-2148 2147 2089 0
2148 -2147 2089 0
-1869 -1995 2149 0
-1869 -2147 2149 0
-1995 -2147 2149 0
1869 1995 -2149 0
1869 2147 -2149 0
1995 2147 -2149 0
-1870 -1996 -2150 0
1870 1996 -2150 0
-1870 1996 2150 0
1870 -1996 2150 0
-2150 -2149 -2090 0
2150 2149 -2090 0
-2150 2149 2090 0
2150 -2149 2090 0
-1870 -1996 2151 0
-1870 -2149 2151 0
-1996 -2149 2151 0
1870 1996 -2151 0
1870 2149 -2151 0
1996 2149 -2151 0
-1871 -1997 -2152 0
1871 1997 -2152 0
-1871 1997 2152 0
1871 -1997 2152 0
-2152 -2151 -2091 0
2152 2151 -2091 0
-2152 2151 2091 0
2152 -2151 2091 0
-1871 -1997 2153 0
-1871 -2151 2153 0
-1997 -2151 2153 0
1871 1997 -2153 0
1871 2151 -2153 0
1997 2151 -2153 0
-1872 -1998 -2154 0
1872 1998 -2154 0
-1872 1998 2154 0
1872 -1998 2154 0
-2154 -2153 -2092 0
2154 2153 -2092 0
-2154 2153 2092 0
2154 -2153 2092 0
-1559 -1570 -2187 0
1559 1570 -2187 0
-1559 1570 2187 0
1559 -1570 2187 0
-2187 -1579 -2155 0
2187 1579 -2155 0
-2187 1579 2155 0
2187 -1579 2155 0
-1560 -1571 -2188 0
1560 1571 -2188 0
-1560 1571 2188 0
1560 -1571 2188 0
-2188 -1580 -2156 0
2188 1580 -2156 0
-2188 1580 2156 0
2188 -1580 2156 0
-1561 -1572 -2189 0
1561 1572 -2189 0
-1561 1572 2189 0
1561 -1572 2189 0
-2189 -1581 -2157 0
2189 1581 -2157 0
-2189 1581 2157 0
2189 -1581 2157 0
-1562 -1573 -2190 0
1562 1573 -2190 0
-1562 1573 2190 0
1562 -1573 2190 0
-2190 -1582 -2158 0
2190 1582 -2158 0
-2190 1582 2158 0
2190 -1582 2158 0
-1563 -1574 -2191 0
1563 1574 -2191 0
-1563 1574 2191 0
1563 -1574 2191 0
-2191 -1583 -2159 0
2191 1583 -2159 0
-2191 1583 2159 0
2191 -1583 2159 0
-1564 -1575 -2192 0
1564 1575 -2192 0
-1564 1575 2192 0
1564 -1575 2192 0
-2192 -1584 -2160 0
2192 1584 -2160 0
-2192 1584 2160 0
2192 -1584 2160 0
-1565 -1576 -2193 0
1565 1576 -2193 0
-1565 1576 2193 0
1565 -1576 2193 0
-2193 -1585 -2161 0
2193 1585 -2161 0
-2193 1585 2161 0
2193 -1585 2161 0
-1566 -1577 -2194 0
1566 1577 -2194 0
-1566 1577 2194 0
1566 -1577 2194 0
-2194 -1586 -2162 0
2194 1586 -2162 0
-2194 1586 2162 0
2194 -1586 2162 0
-1567 -1578 -2195 0
1567 1578 -2195 0
-1567 1578 2195 0
1567 -1578 2195 0
-2195 -1587 -2163 0
2195 1587 -2163 0
-2195 1587 2163 0
2195 -1587 2163 0
-1568 -1579 -2196 0
1568 1579 -2196 0
-1568 1579 2196 0
1568 -1579 2196 0
-2196 -1588 -2164 0
2196 1588 -2164 0
-2196 1588 2164 0
2196 -1588 2164 0
-1569 -1580 -2197 0
1569 1580 -2197 0
-1569 1580 2197 0
1569 -1580 2197 0
-2197 -1557 -2165 0
2197 1557 -2165 0
-2197 1557 2165 0
2197 -1557 2165 0
-1570 -1581 -2198 0
1570 1581 -2198 0
-1570 1581 2198 0
1570 -1581 2198 0
-2198 -1558 -2166 0
2198 1558 -2166 0
-2198 1558 2166 0
2198 -1558 2166 0
-1571 -1582 -2199 0
1571 1582 -2199 0
-1571 1582 2199 0
1571 -1582 2199 0
-2199 -1559 -2167 0
2199 1559 -2167 0
-2199 1559 2167 0
2199 -1559 2167 0
-1572 -1583 -2200 0
1572 1583 -2200 0
-1572 1583 2200 0
1572 -1583 2200 0
-2200 -1560 -2168 0
2200 1560 -2168 0
-2200 1560 2168 0
2200 -1560 2168 0
-1573 -1584 -2201 0
1573 1584 -2201 0
-1573 1584 2201 0
1573 -1584 2201 0
-2201 -1561 -2169 0
2201 1561 -2169 0
-2201 1561 2169 0
2201 -1561 2169 0
-1574 -1585 -2202 0
1574 1585 -2202 0
-1574 1585 2202 0
1574 -1585 2202 0
-2202 -1562 -2170 0
2202 1562 -2170 0
-2202 1562 2170 0
2202 -1562 2170 0
-1575 -1586 -2203 0
1575 1586 -2203 0
-1575 1586 2203 0
1575 -1586 2203 0
-2203 -1563 -2171 0
2203 1563 -2171 0
-2203 1563 2171 0
2203 -1563 2171 0
-1576 -1587 -2204 0
1576 1587 -2204 0
-1576 1587 2204 0
1576 -1587 2204 0
-2204 -1564 -2172 0
2204 1564 -2172 0
-2204 1564 2172 0
2204 -1564 2172 0
-1577 -1588 -2205 0
1577 1588 -2205 0
-1577 1588 2205 0
1577 -1588 2205 0
-2205 -1565 -2173 0
2205 1565 -2173 0
-2205 1565 2173 0
2205 -1565 2173 0
-1578 -1557 -2206 0
1578 1557 -2206 0
-1578 1557 2206 0
1578 -1557 2206 0
-2206 -1566 -2174 0
2206 1566 -2174 0
-2206 1566 2174 0
2206 -1566 2174 0
-1579 -1558 -2207 0
1579 1558 -2207 0
-1579 1558 2207 0
1579 -1558 2207 0
-2207 -1567 -2175 0
2207 1567 -2175 0
-2207 1567 2175 0
2207 -1567 2175 0
-1580 -1559 -2208 0
1580 1559 -2208 0
-1580 1559 2208 0
1580 -1559 2208 0
-2208 -1568 -2176 0
2208 1568 -2176 0
-2208 1568 2176 0
2208 -1568 2176 0
-1581 -1560 -2209 0
1581 1560 -2209 0
-1581 1560 2209 0
1581 -1560 2209 0
-2209 -1569 -2177 0
2209 1569 -2177 0
-2209 1569 2177 0
2209 -1569 2177 0
-1582 -1561 -2210 0
1582 1561 -2210 0
-1582 1561 2210 0
1582 -1561 2210 0
-2210 -1570 -2178 0
2210 1570 -2178 0
-2210 1570 2178 0
2210 -1570 2178 0
-1583 -1562 -2211 0
1583 1562 -2211 0
-1583 1562 2211 0
1583 -1562 2211 0
-2211 -1571 -2179 0
2211 1571 -2179 0
-2211 1571 2179 0
2211 -1571 2179 0
-1584 -1563 -2212 0
1584 1563 -2212 0
-1584 1563 2212 0
1584 -1563 2212 0
-2212 -1572 -2180 0
2212 1572 -2180 0
-2212 1572 2180 0
2212 -1572 2180 0
-1585 -1564 -2213 0
1585 1564 -2213 0
-1585 1564 2213 0
1585 -1564 2213 0
-2213 -1573 -2181 0
2213 1573 -2181 0
-2213 1573 2181 0
2213 -1573 2181 0
-1586 -1565 -2214 0
1586 1565 -2214 0
-1586 1565 2214 0
1586 -1565 2214 0
-2214 -1574 -2182 0
2214 1574 -2182 0
-2214 1574 2182 0
2214 -1574 2182 0
-1587 -1566 -2215 0
1587 1566 -2215 0
-1587 1566 2215 0
1587 -1566 2215 0
-2215 -1575 -2183 0
2215 1575 -2183 0
-2215 1575 2183 0
2215 -1575 2183 0
-1588 -1567 -2216 0
1588 1567 -2216 0
-1588 1567 2216 0
1588 -1567 2216 0
-2216 -1576 -2184 0
2216 1576 -2184 0
-2216 1576 2184 0
2216 -1576 2184 0
-1557 -1568 -2217 0
1557 1568 -2217 0
-1557 1568 2217 0
1557 -1568 2217 0
-2217 -1577 -2185 0
2217 1577 -2185 0
-2217 1577 2185 0
2217 -1577 2185 0
-1558 -1569 -2218 0
1558 1569 -2218 0
-1558 1569 2218 0
1558 -1569 2218 0
-2218 -1578 -2186 0
2218 1578 -2186 0
-2218 1578 2186 0
2218 -1578 2186 0
-1557 -513 2219 0
-1557 -545 2219 0
-513 -545 2219 0
1557 513 -2219 0
1557 545 -2219 0
513 545 -2219 0
-1558 -514 2220 0
-1558 -546 2220 0
-514 -546 2220 0
1558 514 -2220 0
1558 546 -2220 0
514 546 -2220 0
-1559 -515 2221 0
-1559 -547 2221 0
-515 -547 2221 0
1559 515 -2221 0
1559 547 -2221 0
515 547 -2221 0
-1560 -516 2222 0
-1560 -548 2222 0
-516 -548 2222 0
1560 516 -2222 0
1560 548 -2222 0
516 548 -2222 0
-1561 -517 2223 0
-1561 -549 2223 0
-517 -549 2223 0
1561 517 -2223 0
1561 549 -2223 0
517 549 -2223 0
-1562 -518 2224 0
-1562 -550 2224 0
-518 -550 2224 0
1562 518 -2224 0
1562 550 -2224 0
518 550 -2224 0
-1563 -519 2225 0
-1563 -551 2225 0
-519 -551 2225 0
1563 519 -2225 0
1563 551 -2225 0
519 551 -2225 0
-1564 -520 2226 0
-1564 -552 2226 0
-520 -552 2226 0
1564 520 -2226 0
1564 552 -2226 0
520 552 -2226 0
-1565 -521 2227 0
-1565 -553 2227 0
-521 -553 2227 0
1565 521 -2227 0
1565 553 -2227 0
521 553 -2227 0
-1566 -522 2228 0
-1566 -554 2228 0
-522 -554 2228 0
1566 522 -2228 0
1566 554 -2228 0
522 554 -2228 0
-1567 -523 2229 0
-1567 -555 2229 0
-523 -555 2229 0
1567 523 -2229 0
1567 555 -2229 0
523 555 -2229 0
-1568 -524 2230 0
-1568 -556 2230 0
-524 -556 2230 0
1568 524 -2230 0
1568 556 -2230 0
524 556 -2230 0
-1569 -525 2231 0
-1569 -557 2231 0
-525 -557 2231 0
1569 525 -2231 0
1569 557 -2231 0
525 557 -2231 0
-1570 -526 2232 0
-1570 -558 2232 0
-526 -558 2232 0
1570 526 -2232 0
1570 558 -2232 0
526 558 -2232 0
-1571 -527 2233 0
-1571 -559 2233 0
-527 -559 2233 0
1571 527 -2233 0
1571 559 -2233 0
527 559 -2233 0
-1572 -528 2234 0
-1572 -560 2234 0
-528 -560 2234 0
1572 528 -2234 0
1572 560 -2234 0
528 560 -2234 0
-1573 -529 2235 0
-1573 -561 2235 0
-529 -561 2235 0
1573 529 -2235 0
1573 561 -2235 0
529 561 -2235 0
-1574 -530 2236 0
-1574 -562 2236 0
-530 -562 2236 0
1574 530 -2236 0
1574 562 -2236 0
530 562 -2236 0
-1575 -531 2237 0
-1575 -563 2237 0
-531 -563 2237 0
1575 531 -2237 0
1575 563 -2237 0
531 563 -2237 0
-1576 -532 2238 0
-1576 -564 2238 0
-532 -564 2238 0
1576 532 -2238 0
1576 564 -2238 0
532 564 -2238 0
-1577 -533 2239 0
-1577 -565 2239 0
-533 -565 2239 0
1577 533 -2239 0
1577 565 -2239 0
533 565 -2239 0
-1578 -534 2240 0
-1578 -566 2240 0
-534 -566 2240 0
1578 534 -2240 0
1578 566 -2240 0
534 566 -2240 0
-1579 -535 2241 0
-1579 -567 2241 0
-535 -567 2241 0
1579 535 -2241 0
1579 567 -2241 0
535 567 -2241 0
-1580 -536 2242 0
-1580 -568 2242 0
-536 -568 2242 0
1580 536 -2242 0
1580 568 -2242 0
536 568 -2242 0
-1581 -537 2243 0
-1581 -569 2243 0
-537 -569 2243 0
1581 537 -2243 0
1581 569 -2243 0
537 569 -2243 0
-1582 -538 2244 0
-1582 -570 2244 0
-538 -570 2244 0
1582 538 -2244 0
1582 570 -2244 0
538 570 -2244 0
-1583 -539 2245 0
-1583 -571 2245 0
-539 -571 2245 0
1583 539 -2245 0
1583 571 -2245 0
539 571 -2245 0
-1584 -540 2246 0
-1584 -572 2246 0
-540 -572 2246 0
1584 540 -2246 0
1584 572 -2246 0
540 572 -2246 0
-1585 -541 2247 0
-1585 -573 2247 0
-541 -573 2247 0
1585 541 -2247 0
1585 573 -2247 0
541 573 -2247 0
-1586 -542 2248 0
-1586 -574 2248 0
-542 -574 2248 0
1586 542 -2248 0
1586 574 -2248 0
542 574 -2248 0
-1587 -543 2249 0
-1587 -575 2249 0
-543 -575 2249 0
1587 543 -2249 0
1587 575 -2249 0
543 575 -2249 0
-1588 -544 2250 0
-1588 -576 2250 0
-544 -576 2250 0
1588 544 -2250 0
1588 576 -2250 0
544 576 -2250 0
-2155 -2219 -2251 0
2155 2219 -2251 0
-2155 2219 2251 0
2155 -2219 2251 0
-2155 -2219 2283 0
2155 -2283 0
2219 -2283 0
-2156 -2220 -2284 0
2156 2220 -2284 0
-2156 2220 2284 0
2156 -2220 2284 0
-2284 -2283 -2252 0
2284 2283 -2252 0
-2284 2283 2252 0
2284 -2283 2252 0
-2156 -2220 2285 0
-2156 -2283 2285 0
-2220 -2283 2285 0
2156 2220 -2285 0
2156 2283 -2285 0
2220 2283 -2285 0
-2157 -2221 -2286 0
2157 2221 -2286 0
-2157 2221 2286 0
2157 -2221 2286 0
-2286 -2285 -2253 0
2286 2285 -2253 0
-2286 2285 2253 0
2286 -2285 2253 0
-2157 -2221 2287 0
-2157 -2285 2287 0
-2221 -2285 2287 0
2157 2221 -2287 0
2157 2285 -2287 0
2221 2285 -2287 0
-2158 -2222 -2288 0
2158 2222 -2288 0
-2158 2222 2288 0
2158 -2222 2288 0
-2288 -2287 -2254 0
2288 2287 -2254 0
-2288 2287 2254 0
2288 -2287 2254 0
-2158 -2222 2289 0
-2158 -2287 2289 0
-2222 -2287 2289 0
2158 2222 -2289 0
2158 2287 -2289 0
2222 2287 -2289 0
-2159 -2223 -2290 0
2159 2223 -2290 0
-2159 2223 2290 0
2159 -2223 2290 0
-2290 -2289 -2255 0
2290 2289 -2255 0
-2290 2289 2255 0
2290 -2289 2255 0
-2159 -2223 2291 0
-2159 -2289 2291 0
-2223 -2289 2291 0
2159 2223 -2291 0
2159 2289 -2291 0
2223 2289 -2291 0
-2160 -2224 -2292 0
2160 2224 -2292 0
-2160 2224 2292 0
2160 -2224 2292 0
-2292 -2291 -2256 0
2292 2291 -2256 0
-2292 2291 2256 0
2292 -2291 2256 0
-2160 -2224 2293 0
-2160 -2291 2293 0
-2224 -2291 2293 0
2160 2224 -2293 0
2160 2291 -2293 0
2224 2291 -2293 0
-2161 -2225 -2294 0
2161 2225 -2294 0
-2161 2225 2294 0
2161 -2225 2294 0
-2294 -2293 -2257 0
2294 2293 -2257 0
-2294 2293 2257 0
2294 -2293 2257 0
-2161 -2225 2295 0
-2161 -2293 2295 0
-2225 -2293 2295 0
2161 2225 -2295 0
2161 2293 -2295 0
2225 2293 -2295 0
-2162 -2226 -2296 0
2162 2226 -2296 0
-2162 2226 2296 0
2162 -2226 2296 0
-2296 -2295 -2258 0
2296 2295 -2258 0
-2296 2295 2258 0
2296 -2295 2258 0
-2162 -2226 2297 0
-2162 -2295 2297 0
-2226 -2295 2297 0
2162 2226 -2297 0
2162 2295 -2297 0
2226 2295 -2297 0
-2163 -2227 -2298 0
2163 2227 -2298 0
-2163 2227 2298 0
2163 -2227 2298 0
-2298 -2297 -2259 0
2298 2297 -2259 0
-2298 2297 2259 0
2298 -2297 2259 0
-2163 -2227 2299 0
-2163 -2297 2299 0
-2227 -2297 2299 0
2163 2227 -2299 0
2163 2297 -2299 0
2227 2297 -2299 0
-2164 -2228 -2300 0
2164 2228 -2300 0
-2164 2228 2300 0
2164 -2228 2300 0
-2300 -2299 -2260 0
2300 2299 -2260 0
-2300 2299 2260 0
2300 -2299 2260 0
-2164 -2228 2301 0
-2164 -2299 2301 0
-2228 -2299 2301 0
2164 2228 -2301 0
2164 2299 -2301 0
2228 2299 -2301 0
-2165 -2229 -2302 0
2165 2229 -2302 0
-2165 2229 2302 0
2165 -2229 2302 0
-2302 -2301 -2261 0
2302 2301 -2261 0
-2302 2301 2261 0
2302 -2301 2261 0
-2165 -2229 2303 0
-2165 -2301 2303 0
-2229 -2301 2303 0
2165 2229 -2303 0
2165 2301 -2303 0
2229 2301 -2303 0
-2166 -2230 -2304 0
2166 2230 -2304 0
-2166 2230 2304 0
2166 -2230 2304 0
-2304 -2303 -2262 0
2304 2303 -2262 0
-2304 2303 2262 0
2304 -2303 2262 0
-2166 -2230 2305 0
-2166 -2303 2305 0
-2230 -2303 2305 0
2166 2230 -2305 0
2166 2303 -2305 0
2230 2303 -2305 0
-2167 -2231 -2306 0
2167 2231 -2306 0
-2167 2231 2306 0
2167 -2231 2306 0
-2306 -2305 -2263 0
2306 2305 -2263 0
-2306 2305 2263 0
2306 -2305 2263 0
-2167 -2231 2307 0
-2167 -2305 2307 0
-2231 -2305 2307 0
2167 2231 -2307 0
2167 2305 -2307 0
2231 2305 -2307 0
-2168 -2232 -2308 0
2168 2232 -2308 0
-2168 2232 2308 0
2168 -2232 2308 0
-2308 -2307 -2264 0
2308 2307 -2264 0
-2308 2307 2264 0
2308 -2307 2264 0
-2168 -2232 2309 0
-2168 -2307 2309 0
-2232 -2307 2309 0
2168 2232 -2309 0
2168 2307 -2309 0
2232 2307 -2309 0
-2169 -2233 -2310 0
2169 2233 -2310 0
-2169 2233 2310 0
2169 -2233 2310 0
-2310 -2309 -2265 0
2310 2309 -2265 0
-2310 2309 2265 0
2310 -2309 2265 0
-2169 -2233 2311 0
-2169 -2309 2311 0
-2233 -2309 2311 0
2169 2233 -2311 0
2169 2309 -2311 0
2233 2309 -2311 0
-2170 -2234 -2312 0
2170 2234 -2312 0
-2170 2234 2312 0
2170 -2234 2312 0
-2312 -2311 -2266 0
2312 2311 -2266 0
-2312 2311 2266 0
2312 -2311 2266 0
-2170 -2234 2313 0
-2170 -2311 2313 0
-2234 -2311 2313 0
2170 2234 -2313 0
2170 2311 -2313 0
2234 2311 -2313 0
-2171 -2235 -2314 0
2171 2235 -2314 0
-2171 2235 2314 0
2171 -2235 2314 0
-2314 -2313 -2267 0
2314 2313 -2267 0
-2314 2313 2267 0
2314 -2313 2267 0
-2171 -2235 2315 0
-2171 -2313 2315 0
-2235 -2313 2315 0
2171 2235 -2315 0
2171 2313 -2315 0
2235 2313 -2315 0
-2172 -2236 -2316 0
2172 2236 -2316 0
-2172 2236 2316 0
2172 -2236 2316 0
-2316 -2315 -2268 0
2316 2315 -2268 0
-2316 2315 2268 0
2316 -2315 2268 0
-2172 -2236 2317 0
-2172 -2315 2317 0
-2236 -2315 2317 0
2172 2236 -2317 0
2172 2315 -2317 0
2236 2315 -2317 0
-2173 -2237 -2318 0
2173 2237 -2318 0
-2173 2237 2318 0
2173 -2237 2318 0
-2318 -2317 -2269 0
2318 2317 -2269 0
-2318 2317 2269 0
2318 -2317 2269 0
-2173 -2237 2319 0
-2173 -2317 2319 0
-2237 -2317 2319 0
2173 2237 -2319 0
2173 2317 -2319 0
2237 2317 -2319 0
-2174 -2238 -2320 0
2174 2238 -2320 0
-2174 2238 2320 0
2174 -2238 2320 0
-2320 -2319 -2270 0
2320 2319 -2270 0
-2320 2319 2270 0
2320 -2319 2270 0
-2174 -2238 2321 0
-2174 -2319 2321 0
-2238 -2319 2321 0
2174 2238 -2321 0
2174 2319 -2321 0
2238 2319 -2321 0
-2175 -2239 -2322 0
2175 2239 -2322 0
-2175 2239 2322 0
2175 -2239 2322 0
-2322 -2321 -2271 0
2322 2321 -2271 0
-2322 2321 2271 0
2322 -2321 2271 0
-2175 -2239 2323 0
-2175 -2321 2323 0
-2239 -2321 2323 0
2175 2239 -2323 0
2175 2321 -2323 0
2239 2321 -2323 0
-2176 -2240 -2324 0
2176 2240 -2324 0
-2176 2240 2324 0
2176 -2240 2324 0
-2324 -2323 -2272 0
2324 2323 -2272 0
-2324 2323 2272 0
2324 -2323 2272 0
-2176 -2240 2325 0
-2176 -2323 2325 0
-2240 -2323 2325 0
2176 2240 -2325 0
2176 2323 -2325 0
2240 2323 -2325 0
-2177 -2241 -2326 0
2177 2241 -2326 0
-2177 2241 2326 0
2177 -2241 2326 0
-2326 -2325 -2273 0
2326 2325 -2273 0
-2326 2325 2273 0
2326 -2325 2273 0
-2177 -2241 2327 0
-2177 -2325 2327 0
-2241 -2325 2327 0
2177 2241 -2327 0
2177 2325 -2327 0
2241 2325 -2327 0
-2178 -2242 -2328 0
2178 2242 -2328 0
-2178 2242 2328 0
2178 -2242 2328 0
-2328 -2327 -2274 0
2328 2327 -2274 0
-2328 2327 2274 0
2328 -2327 2274 0
-2178 -2242 2329 0
-2178 -2327 2329 0
-2242 -2327 2329 0
2178 2242 -2329 0
2178 2327 -2329 0
2242 2327 -2329 0
-2179 -2243 -2330 0
2179 2243 -2330 0
-2179 2243 2330 0
2179 -2243 2330 0
-2330 -2329 -2275 0
2330 2329 -2275 0
-2330 2329 2275 0
2330 -2329 2275 0
-2179 -2243 2331 0
-2179 -2329 2331 0
-2243 -2329 2331 0
2179 2243 -2331 0
2179 2329 -2331 0
2243 2329 -2331 0
-2180 -2244 -2332 0
2180 2244 -2332 0
-2180 2244 2332 0
2180 -2244 2332 0
-2332 -2331 -2276 0
2332 2331 -2276 0
-2332 2331 2276 0
2332 -2331 2276 0
-2180 -2244 2333 0
-2180 -2331 2333 0
-2244 -2331 2333 0
2180 2244 -2333 0
2180 2331 -2333 0
2244 2331 -2333 0
-2181 -2245 -2334 0
2181 2245 -2334 0
-2181 2245 2334 0
2181 -2245 2334 0
-2334 -2333 -2277 0
2334 2333 -2277 0
-2334 2333 2277 0
2334 -2333 2277 0
-2181 -2245 2335 0
-2181 -2333 2335 0
-2245 -2333 2335 0
2181 2245 -2335 0
2181 2333 -2335 0
2245 2333 -2335 0
-2182 -2246 -2336 0
2182 2246 -2336 0
-2182 2246 2336 0
2182 -2246 2336 0
-2336 -2335 -2278 0
2336 2335 -2278 0
-2336 2335 2278 0
2336 -2335 2278 0
-2182 -2246 2337 0
-2182 -2335 2337 0
-2246 -2335 2337 0
2182 2246 -2337 0
2182 2335 -2337 0
2246 2335 -2337 0
-2183 -2247 -2338 0
2183 2247 -2338 0
-2183 2247 2338 0
2183 -2247 2338 0
-2338 -2337 -2279 0
2338 2337 -2279 0
-2338 2337 2279 0
2338 -2337 2279 0
-2183 -2247 2339 0
-2183 -2337 2339 0
-2247 -2337 2339 0
2183 2247 -2339 0
2183 2337 -2339 0
2247 2337 -2339 0
-2184 -2248 -2340 0
2184 2248 -2340 0
-2184 2248 2340 0
2184 -2248 2340 0
-2340 -2339 -2280 0
2340 2339 -2280 0
-2340 2339 2280 0
2340 -2339 2280 0
-2184 -2248 2341 0
-2184 -2339 2341 0
-2248 -2339 2341 0
2184 2248 -2341 0
2184 2339 -2341 0
2248 2339 -2341 0
-2185 -2249 -2342 0
2185 2249 -2342 0
-2185 2249 2342 0
2185 -2249 2342 0
-2342 -2341 -2281 0
2342 2341 -2281 0
-2342 2341 2281 0
2342 -2341 2281 0
-2185 -2249 2343 0
-2185 -2341 2343 0
-2249 -2341 2343 0
2185 2249 -2343 0
2185 2341 -2343 0
2249 2341 -2343 0
-2186 -2250 -2344 0
2186 2250 -2344 0
-2186 2250 2344 0
2186 -2250 2344 0
-2344 -2343 -2282 0
2344 2343 -2282 0
-2344 2343 2282 0
2344 -2343 2282 0
-577 -2061 -2345 0
577 2061 -2345 0
-577 2061 2345 0
577 -2061 2345 0
-577 -2061 2377 0
577 -2377 0
2061 -2377 0
-578 -2062 -2378 0
578 2062 -2378 0
-578 2062 2378 0
578 -2062 2378 0
-2378 -2377 -2346 0
2378 2377 -2346 0
-2378 2377 2346 0
2378 -2377 2346 0
-578 -2062 2379 0
-578 -2377 2379 0
-2062 -2377 2379 0
578 2062 -2379 0
578 2377 -2379 0
2062 2377 -2379 0
-579 -2063 -2380 0
579 2063 -2380 0
-579 2063 2380 0
579 -2063 2380 0
-2380 -2379 -2347 0
2380 2379 -2347 0
-2380 2379 2347 0
2380 -2379 2347 0
-579 -2063 2381 0
-579 -2379 2381 0
-2063 -2379 2381 0
579 2063 -2381 0
579 2379 -2381 0
2063 2379 -2381 0
-580 -2064 -2382 0
580 2064 -2382 0
-580 2064 2382 0
580 -2064 2382 0
-2382 -2381 -2348 0
2382 2381 -2348 0
-2382 2381 2348 0
2382 -2381 2348 0
-580 -2064 2383 0
-580 -2381 2383 0
-2064 -2381 2383 0
580 2064 -2383 0
580 2381 -2383 0
2064 2381 -2383 0
-581 -2065 -2384 0
581 2065 -2384 0
-581 2065 2384 0
581 -2065 2384 0
-2384 -2383 -2349 0
2384 2383 -2349 0
-2384 2383 2349 0
2384 -2383 2349 0
-581 -2065 2385 0
-581 -2383 2385 0
-2065 -2383 2385 0
581 2065 -2385 0
581 2383 -2385 0
2065 2383 -2385 0
-582 -2066 -2386 0
582 2066 -2386 0
-582 2066 2386 0
582 -2066 2386 0
-2386 -2385 -2350 0
2386 2385 -2350 0
-2386 2385 2350 0
2386 -2385 2350 0
-582 -2066 2387 0
-582 -2385 2387 0
-2066 -2385 2387 0
582 2066 -2387 0
582 2385 -2387 0
2066 2385 -2387 0
-583 -2067 -2388 0
583 2067 -2388 0
-583 2067 2388 0
583 -2067 2388 0
-2388 -2387 -2351 0
2388 2387 -2351 0
-2388 2387 2351 0
2388 -2387 2351 0
-583 -2067 2389 0
-583 -2387 2389 0
-2067 -2387 2389 0
583 2067 -2389 0
583 2387 -2389 0
2067 2387 -2389 0
-584 -2068 -2390 0
584 2068 -2390 0
-584 2068 2390 0
584 -2068 2390 0
-2390 -2389 -2352 0
2390 2389 -2352 0
-2390 2389 2352 0
2390 -2389 2352 0
-584 -2068 2391 0
-584 -2389 2391 0
-2068 -2389 2391 0
584 2068 -2391 0
584 2389 -2391 0
2068 2389 -2391 0
-585 -2069 -2392 0
585 2069 -2392 0
-585 2069 2392 0
585 -2069 2392 0
-2392 -2391 -2353 0
2392 2391 -2353 0
-2392 2391 2353 0
2392 -2391 2353 0
-585 -2069 2393 0
-585 -2391 2393 0
-2069 -2391 2393 0
585 2069 -2393 0
585 2391 -2393 0
2069 2391 -2393 0
-586 -2070 -2394 0
586 2070 -2394 0
-586 2070 2394 0
586 -2070 2394 0
-2394 -2393 -2354 0
2394 2393 -2354 0
-2394 2393 2354 0
2394 -2393 2354 0
-586 -2070 2395 0
-586 -2393 2395 0
-2070 -2393 2395 0
586 2070 -2395 0
586 2393 -2395 0
2070 2393 -2395 0
-587 -2071 -2396 0
587 2071 -2396 0
-587 2071 2396 0
587 -2071 2396 0
-2396 -2395 -2355 0
2396 2395 -2355 0
-2396 2395 2355 0
2396 -2395 2355 0
-587 -2071 2397 0
-587 -2395 2397 0
-2071 -2395 2397 0
587 2071 -2397 0
587 2395 -2397 0
2071 2395 -2397 0
-588 -2072 -2398 0
588 2072 -2398 0
-588 2072 2398 0
588 -2072 2398 0
-2398 -2397 -2356 0
2398 2397 -2356 0
-2398 2397 2356 0
2398 -2397 2356 0
-588 -2072 2399 0
-588 -2397 2399 0
-2072 -2397 2399 0
588 2072 -2399 0
588 2397 -2399 0
2072 2397 -2399 0
-589 -2073 -2400 0
589 2073 -2400 0
-589 2073 2400 0
589 -2073 2400 0
-2400 -2399 -2357 0
2400 2399 -2357 0
-2400 2399 2357 0
2400 -2399 2357 0
-589 -2073 2401 0
-589 -2399 2401 0
-2073 -2399 2401 0
589 2073 -2401 0
589 2399 -2401 0
2073 2399 -2401 0
-590 -2074 -2402 0
590 2074 -2402 0
-590 2074 2402 0
590 -2074 2402 0
-2402 -2401 -2358 0
2402 2401 -2358 0
-2402 2401 2358 0
2402 -2401 2358 0
-590 -2074 2403 0
-590 -2401 2403 0
-2074 -2401 2403 0
590 2074 -2403 0
590 2401 -2403 0
2074 2401 -2403 0
-591 -2075 -2404 0
591 2075 -2404 0
-591 2075 2404 0
591 -2075 2404 0
-2404 -2403 -2359 0
2404 2403 -2359 0
-2404 2403 2359 0
2404 -2403 2359 0
-591 -2075 2405 0
-591 -2403 2405 0
-2075 -2403 2405 0
591 2075 -2405 0
591 2403 -2405 0
2075 2403 -2405 0
-592 -2076 -2406 0
592 2076 -2406 0
-592 2076 2406 0
592 -2076 2406 0
-2406 -2405 -2360 0
2406 2405 -2360 0
-2406 2405 2360 0
2406 -2405 2360 0
-592 -2076 2407 0
-592 -2405 2407 0
-2076 -2405 2407 0
592 2076 -2407 0
592 2405 -2407 0
2076 2405 -2407 0
-593 -2077 -2408 0
593 2077 -2408 0
-593 2077 2408 0
593 -2077 2408 0
-2408 -2407 -2361 0
2408 2407 -2361 0
-2408 2407 2361 0
2408 -2407 2361 0
-593 -2077 2409 0
-593 -2407 2409 0
-2077 -2407 2409 0
593 2077 -2409 0
593 2407 -2409 0
2077 2407 -2409 0
-594 -2078 -2410 0
594 2078 -2410 0
-594 2078 2410 0
594 -2078 2410 0
-2410 -2409 -2362 0
2410 2409 -2362 0
-2410 2409 2362 0
2410 -2409 2362 0
-594 -2078 2411 0
-594 -2409 2411 0
-2078 -2409 2411 0
594 2078 -2411 0
594 2409 -2411 0
2078 2409 -2411 0
-595 -2079 -2412 0
595 2079 -2412 0
-595 2079 2412 0
595 -2079 2412 0
-2412 -2411 -2363 0
2412 2411 -2363 0
-2412 2411 2363 0
2412 -2411 2363 0
-595 -2079 2413 0
-595 -2411 2413 0
-2079 -2411 2413 0
595 2079 -2413 0
595 2411 -2413 0
2079 2411 -2413 0
-596 -2080 -2414 0
596 2080 -2414 0
-596 2080 2414 0
596 -2080 2414 0
-2414 -2413 -2364 0
2414 2413 -2364 0
-2414 2413 2364 0
2414 -2413 2364 0
-596 -2080 2415 0
-596 -2413 2415 0
-2080 -2413 2415 0
596 2080 -2415 0
596 2413 -2415 0
2080 2413 -2415 0
-597 -2081 -2416 0
597 2081 -2416 0
-597 2081 2416 0
597 -2081 2416 0
-2416 -2415 -2365 0
2416 2415 -2365 0
-2416 2415 2365 0
2416 -2415 2365 0
-597 -2081 2417 0
-597 -2415 2417 0
-2081 -2415 2417 0
597 2081 -2417 0
597 2415 -2417 0
2081 2415 -2417 0
-598 -2082 -2418 0
598 2082 -2418 0
-598 2082 2418 0
598 -2082 2418 0
-2418 -2417 -2366 0
2418 2417 -2366 0
-2418 2417 2366 0
2418 -2417 2366 0
-598 -2082 2419 0
-598 -2417 2419 0
-2082 -2417 2419 0
598 2082 -2419 0
598 2417 -2419 0
2082 2417 -2419 0
-599 -2083 -2420 0
599 2083 -2420 0
-599 2083 2420 0
599 -2083 2420 0
-2420 -2419 -2367 0
2420 2419 -2367 0
-2420 2419 2367 0
2420 -2419 2367 0
-599 -2083 2421 0
-599 -2419 2421 0
-2083 -2419 2421 0
599 2083 -2421 0
599 2419 -2421 0
2083 2419 -2421 0
-600 -2084 -2422 0
600 2084 -2422 0
-600 2084 2422 0
600 -2084 2422 0
-2422 -2421 -2368 0
2422 2421 -2368 0
-2422 2421 2368 0
2422 -2421 2368 0
-600 -2084 2423 0
-600 -2421 2423 0
-2084 -2421 2423 0
600 2084 -2423 0
600 2421 -2423 0
2084 2421 -2423 0
-601 -2085 -2424 0
601 2085 -2424 0
-601 2085 2424 0
601 -2085 2424 0
-2424 -2423 -2369 0
2424 2423 -2369 0
-2424 2423 2369 0
2424 -2423 2369 0
-601 -2085 2425 0
-601 -2423 2425 0
-2085 -2423 2425 0
601 2085 -2425 0
601 2423 -2425 0
2085 2423 -2425 0
-602 -2086 -2426 0
602 2086 -2426 0
-602 2086 2426 0
602 -2086 2426 0
-2426 -2425 -2370 0
2426 2425 -2370 0
-2426 2425 2370 0
2426 -2425 2370 0
-602 -2086 2427 0
-602 -2425 2427 0
-2086 -2425 2427 0
602 2086 -2427 0
602 2425 -2427 0
2086 2425 -2427 0
-603 -2087 -2428 0
603 2087 -2428 0
-603 2087 2428 0
603 -2087 2428 0
-2428 -2427 -2371 0
2428 2427 -2371 0
-2428 2427 2371 0
2428 -2427 2371 0
-603 -2087 2429 0
-603 -2427 2429 0
-2087 -2427 2429 0
603 2087 -2429 0
603 2427 -2429 0
2087 2427 -2429 0
-604 -2088 -2430 0
604 2088 -2430 0
-604 2088 2430 0
604 -2088 2430 0
-2430 -2429 -2372 0
2430 2429 -2372 0
-2430 2429 2372 0
2430 -2429 2372 0
-604 -2088 2431 0
-604 -2429 2431 0
-2088 -2429 2431 0
604 2088 -2431 0
604 2429 -2431 0
2088 2429 -2431 0
-605 -2089 -2432 0
605 2089 -2432 0
-605 2089 2432 0
605 -2089 2432 0
-2432 -2431 -2373 0
2432 2431 -2373 0
-2432 2431 2373 0
2432 -2431 2373 0
-605 -2089 2433 0
-605 -2431 2433 0
-2089 -2431 2433 0
605 2089 -2433 0
605 2431 -2433 0
2089 2431 -2433 0
-606 -2090 -2434 0
606 2090 -2434 0
-606 2090 2434 0
606 -2090 2434 0
-2434 -2433 -2374 0
2434 2433 -2374 0
-2434 2433 2374 0
2434 -2433 2374 0
-606 -2090 2435 0
-606 -2433 2435 0
-2090 -2433 2435 0
606 2090 -2435 0
606 2433 -2435 0
2090 2433 -2435 0
-607 -2091 -2436 0
607 2091 -2436 0
-607 2091 2436 0
607 -2091 2436 0
-2436 -2435 -2375 0
2436 2435 -2375 0
-2436 2435 2375 0
2436 -2435 2375 0
-607 -2091 2437 0
-607 -2435 2437 0
-2091 -2435 2437 0
607 2091 -2437 0
607 2435 -2437 0
2091 2435 -2437 0
-608 -2092 -2438 0
608 2092 -2438 0
-608 2092 2438 0
608 -2092 2438 0
-2438 -2437 -2376 0
2438 2437 -2376 0
-2438 2437 2376 0
2438 -2437 2376 0
-2061 -2251 -2439 0
2061 2251 -2439 0
-2061 2251 2439 0
2061 -2251 2439 0
-2061 -2251 2471 0
2061 -2471 0
2251 -2471 0
-2062 -2252 -2472 0
2062 2252 -2472 0
-2062 2252 2472 0
2062 -2252 2472 0
-2472 -2471 -2440 0
2472 2471 -2440 0
-2472 2471 2440 0
2472 -2471 2440 0
-2062 -2252 2473 0
-2062 -2471 2473 0
-2252 -2471 2473 0
2062 2252 -2473 0
2062 2471 -2473 0
2252 2471 -2473 0
-2063 -2253 -2474 0
2063 2253 -2474 0
-2063 2253 2474 0
2063 -2253 2474 0
-2474 -2473 -2441 0
2474 2473 -2441 0
-2474 2473 2441 0
2474 -2473 2441 0
-2063 -2253 2475 0
-2063 -2473 2475 0
-2253 -2473 2475 0
2063 2253 -2475 0
2063 2473 -2475 0
2253 2473 -2475 0
-2064 -2254 -2476 0
2064 2254 -2476 0
-2064 2254 2476 0
2064 -2254 2476 0
-2476 -2475 -2442 0
2476 2475 -2442 0
-2476 2475 2442 0
2476 -2475 2442 0
-2064 -2254 2477 0
-2064 -2475 2477 0
-2254 -2475 2477 0
2064 2254 -2477 0
2064 2475 -2477 0
2254 2475 -2477 0
-2065 -2255 -2478 0
2065 2255 -2478 0
-2065 2255 2478 0
2065 -2255 2478 0
-2478 -2477 -2443 0
2478 2477 -2443 0
-2478 2477 2443 0
2478 -2477 2443 0
-2065 -2255 2479 0
-2065 -2477 2479 0
-2255 -2477 2479 0
2065 2255 -2479 0
2065 2477 -2479 0
2255 2477 -2479 0
-2066 -2256 -2480 0
2066 2256 -2480 0
-2066 2256 2480 0
2066 -2256 2480 0
-2480 -2479 -2444 0
2480 2479 -2444 0
-2480 2479 2444 0
2480 -2479 2444 0
-2066 -2256 2481 0
-2066 -2479 2481 0
-2256 -2479 2481 0
2066 2256 -2481 0
2066 2479 -2481 0
2256 2479 -2481 0
-2067 -2257 -2482 0
2067 2257 -2482 0
-2067 2257 2482 0
2067 -2257 2482 0
-2482 -2481 -2445 0
2482 2481 -2445 0
-2482 2481 2445 0
2482 -2481 2445 0
-2067 -2257 2483 0
-2067 -2481 2483 0
-2257 -2481 2483 0
2067 2257 -2483 0
2067 2481 -2483 0
2257 2481 -2483 0
-2068 -2258 -2484 0
2068 2258 -2484 0
-2068 2258 2484 0
2068 -2258 2484 0
-2484 -2483 -2446 0
2484 2483 -2446 0
-2484 2483 2446 0
2484 -2483 2446 0
-2068 -2258 2485 0
-2068 -2483 2485 0
-2258 -2483 2485 0
2068 2258 -2485 0
2068 2483 -2485 0
2258 2483 -2485 0
-2069 -2259 -2486 0
2069 2259 -2486 0
-2069 2259 2486 0
2069 -2259 2486 0
-2486 -2485 -2447 0
2486 2485 -2447 0
-2486 2485 2447 0
2486 -2485 2447 0
-2069 -2259 2487 0
-2069 -2485 2487 0
-2259 -2485 2487 0
2069 2259 -2487 0
2069 2485 -2487 0
2259 2485 -2487 0
-2070 -2260 -2488 0
2070 2260 -2488 0
-2070 2260 2488 0
2070 -2260 2488 0
-2488 -2487 -2448 0
2488 2487 -2448 0
-2488 2487 2448 0
2488 -2487 2448 0
-2070 -2260 2489 0
-2070 -2487 2489 0
-2260 -2487 2489 0
2070 2260 -2489 0
2070 2487 -2489 0
2260 2487 -2489 0
-2071 -2261 -2490 0
2071 2261 -2490 0
-2071 2261 2490 0
2071 -2261 2490 0
-2490 -2489 -2449 0
2490 2489 -2449 0
-2490 2489 2449 0
2490 -2489 2449 0
-2071 -2261 2491 0
-2071 -2489 2491 0
-2261 -2489 2491 0
2071 2261 -2491 0
2071 2489 -2491 0
2261 2489 -2491 0
-2072 -2262 -2492 0
2072 2262 -2492 0
-2072 2262 2492 0
2072 -2262 2492 0
-2492 -2491 -2450 0
2492 2491 -2450 0
-2492 2491 2450 0
2492 -2491 2450 0
-2072 -2262 2493 0
-2072 -2491 2493 0
-2262 -2491 2493 0
2072 2262 -2493 0
2072 2491 -2493 0
2262 2491 -2493 0
-2073 -2263 -2494 0
2073 2263 -2494 0
-2073 2263 2494 0
2073 -2263 2494 0
-2494 -2493 -2451 0
2494 2493 -2451 0
-2494 2493 2451 0
2494 -2493 2451 0
-2073 -2263 2495 0
-2073 -2493 2495 0
-2263 -2493 2495 0
2073 2263 -2495 0
2073 2493 -2495 0
2263 2493 -2495 0
-2074 -2264 -2496 0
2074 2264 -2496 0
-2074 2264 2496 0
2074 -2264 2496 0
-2496 -2495 -2452 0
2496 2495 -2452 0
-2496 2495 2452 0
2496 -2495 2452 0
-2074 -2264 2497 0
-2074 -2495 2497 0
-2264 -2495 2497 0
2074 2264 -2497 0
2074 2495 -2497 0
2264 2495 -2497 0
-2075 -2265 -2498 0
2075 2265 -2498 0
-2075 2265 2498 0
2075 -2265 2498 0
-2498 -2497 -2453 0
2498 2497 -2453 0
-2498 2497 2453 0
2498 -2497 2453 0
-2075 -2265 2499 0
-2075 -2497 2499 0
-2265 -2497 2499 0
2075 2265 -2499 0
2075 2497 -2499 0
2265 2497 -2499 0
-2076 -2266 -2500 0
2076 2266 -2500 0
-2076 2266 2500 0
2076 -2266 2500 0
-2500 -2499 -2454 0
2500 2499 -2454 0
-2500 2499 2454 0
2500 -2499 2454 0
-2076 -2266 2501 0
-2076 -2499 2501 0
-2266 -2499 2501 0
2076 2266 -2501 0
2076 2499 -2501 0
2266 2499 -2501 0
-2077 -2267 -2502 0
2077 2267 -2502 0
-2077 2267 2502 0
2077 -2267 2502 0
-2502 -2501 -2455 0
2502 2501 -2455 0
-2502 2501 2455 0
2502 -2501 2455 0
-2077 -2267 2503 0
-2077 -2501 2503 0
-2267 -2501 2503 0
2077 2267 -2503 0
2077 2501 -2503 0
2267 2501 -2503 0
-2078 -2268 -2504 0
2078 2268 -2504 0
-2078 2268 2504 0
2078 -2268 2504 0
-2504 -2503 -2456 0
2504 2503 -2456 0
-2504 2503 2456 0
2504 -2503 2456 0
-2078 -2268 2505 0
-2078 -2503 2505 0
-2268 -2503 2505 0
2078 2268 -2505 0
2078 2503 -2505 0
2268 2503 -2505 0
-2079 -2269 -2506 0
2079 2269 -2506 0
-2079 2269 2506 0
2079 -2269 2506 0
-2506 -2505 -2457 0
2506 2505 -2457 0
-2506 2505 2457 0
2506 -2505 2457 0
-2079 -2269 2507 0
-2079 -2505 2507 0
-2269 -2505 2507 0
2079 2269 -2507 0
2079 2505 -2507 0
2269 2505 -2507 0
-2080 -2270 -2508 0
2080 2270 -2508 0
-2080 2270 2508 0
2080 -2270 2508 0
-2508 -2507 -2458 0
2508 2507 -2458 0
-2508 2507 2458 0
2508 -2507 2458 0
-2080 -2270 2509 0
-2080 -2507 2509 0
-2270 -2507 2509 0
2080 2270 -2509 0
2080 2507 -2509 0
2270 2507 -2509 0
-2081 -2271 -2510 0
2081 2271 -2510 0
-2081 2271 2510 0
2081 -2271 2510 0
-2510 -2509 -2459 0
2510 2509 -2459 0
-2510 2509 2459 0
2510 -2509 2459 0
-2081 -2271 2511 0
-2081 -2509 2511 0
-2271 -2509 2511 0
2081 2271 -2511 0
2081 2509 -2511 0
2271 2509 -2511 0
-2082 -2272 -2512 0
2082 2272 -2512 0
-2082 2272 2512 0
2082 -2272 2512 0
-2512 -2511 -2460 0
2512 2511 -2460 0
-2512 2511 2460 0
2512 -2511 2460 0
-2082 -2272 2513 0
-2082 -2511 2513 0
-2272 -2511 2513 0
2082 2272 -2513 0
2082 2511 -2513 0
2272 2511 -2513 0
-2083 -2273 -2514 0
2083 2273 -2514 0
-2083 2273 2514 0
2083 -2273 2514 0
-2514 -2513 -2461 0
2514 2513 -2461 0
-2514 2513 2461 0
2514 -2513 2461 0
-2083 -2273 2515 0
-2083 -2513 2515 0
-2273 -2513 2515 0
2083 2273 -2515 0
2083 2513 -2515 0
2273 2513 -2515 0
-2084 -2274 -2516 0
2084 2274 -2516 0
-2084 2274 2516 0
2084 -2274 2516 0
-2516 -2515 -2462 0
2516 2515 -2462 0
-2516 2515 2462 0
2516 -2515 2462 0
-2084 -2274 2517 0
-2084 -2515 2517 0
-2274 -2515 2517 0
2084 2274 -2517 0
2084 2515 -2517 0
2274 2515 -2517 0
-2085 -2275 -2518 0
2085 2275 -2518 0
-2085 2275 2518 0
2085 -2275 2518 0
-2518 -2517 -2463 0
2518 2517 -2463 0
-2518 2517 2463 0
2518 -2517 2463 0
-2085 -2275 2519 0
-2085 -2517 2519 0
-2275 -2517 2519 0
2085 2275 -2519 0
2085 2517 -2519 0
2275 2517 -2519 0
-2086 -2276 -2520 0
2086 2276 -2520 0
-2086 2276 2520 0
2086 -2276 2520 0
-2520 -2519 -2464 0
2520 2519 -2464 0
-2520 2519 2464 0
2520 -2519 2464 0
-2086 -2276 2521 0
-2086 -2519 2521 0
-2276 -2519 2521 0
2086 2276 -2521 0
2086 2519 -2521 0
2276 2519 -2521 0
-2087 -2277 -2522 0
2087 2277 -2522 0
-2087 2277 2522 0
2087 -2277 2522 0
-2522 -2521 -2465 0
2522 2521 -2465 0
-2522 2521 2465 0
2522 -2521 2465 0
-2087 -2277 2523 0
-2087 -2521 2523 0
-2277 -2521 2523 0
2087 2277 -2523 0
2087 2521 -2523 0
2277 2521 -2523 0
-2088 -2278 -2524 0
2088 2278 -2524 0
-2088 2278 2524 0
2088 -2278 2524 0
-2524 -2523 -2466 0
2524 2523 -2466 0
-2524 2523 2466 0
2524 -2523 2466 0
-2088 -2278 2525 0
-2088 -2523 2525 0
-2278 -2523 2525 0
2088 2278 -2525 0
2088 2523 -2525 0
2278 2523 -2525 0
-2089 -2279 -2526 0
2089 2279 -2526 0
-2089 2279 2526 0
2089 -2279 2526 0
-2526 -2525 -2467 0
2526 2525 -2467 0
-2526 2525 2467 0
2526 -2525 2467 0
-2089 -2279 2527 0
-2089 -2525 2527 0
-2279 -2525 2527 0
2089 2279 -2527 0
2089 2525 -2527 0
2279 2525 -2527 0
-2090 -2280 -2528 0
2090 2280 -2528 0
-2090 2280 2528 0
2090 -2280 2528 0
-2528 -2527 -2468 0
2528 2527 -2468 0
-2528 2527 2468 0
2528 -2527 2468 0
-2090 -2280 2529 0
-2090 -2527 2529 0
-2280 -2527 2529 0
2090 2280 -2529 0
2090 2527 -2529 0
2280 2527 -2529 0
-2091 -2281 -2530 0
2091 2281 -2530 0
-2091 2281 2530 0
2091 -2281 2530 0
-2530 -2529 -2469 0
2530 2529 -2469 0
-2530 2529 2469 0
2530 -2529 2469 0
-2091 -2281 2531 0
-2091 -2529 2531 0
-2281 -2529 2531 0
2091 2281 -2531 0
2091 2529 -2531 0
2281 2529 -2531 0
-2092 -2282 -2532 0
2092 2282 -2532 0
-2092 2282 2532 0
2092 -2282 2532 0
-2532 -2531 -2470 0
2532 2531 -2470 0
-2532 2531 2470 0
2532 -2531 2470 0
-2351 -2356 -2565 0
2351 2356 -2565 0
-2351 2356 2565 0
2351 -2356 2565 0
-2565 -2370 -2533 0
2565 2370 -2533 0
-2565 2370 2533 0
2565 -2370 2533 0
-2352 -2357 -2566 0
2352 2357 -2566 0
-2352 2357 2566 0
2352 -2357 2566 0
-2566 -2371 -2534 0
2566 2371 -2534 0
-2566 2371 2534 0
2566 -2371 2534 0
-2353 -2358 -2567 0
2353 2358 -2567 0
-2353 2358 2567 0
2353 -2358 2567 0
-2567 -2372 -2535 0
2567 2372 -2535 0
-2567 2372 2535 0
2567 -2372 2535 0
-2354 -2359 -2568 0
2354 2359 -2568 0
-2354 2359 2568 0
2354 -2359 2568 0
-2568 -2373 -2536 0
2568 2373 -2536 0
-2568 2373 2536 0
2568 -2373 2536 0
-2355 -2360 -2569 0
2355 2360 -2569 0
-2355 2360 2569 0
2355 -2360 2569 0
-2569 -2374 -2537 0
2569 2374 -2537 0
-2569 2374 2537 0
2569 -2374 2537 0
-2356 -2361 -2570 0
2356 2361 -2570 0
-2356 2361 2570 0
2356 -2361 2570 0
-2570 -2375 -2538 0
2570 2375 -2538 0
-2570 2375 2538 0
2570 -2375 2538 0
-2357 -2362 -2571 0
2357 2362 -2571 0
-2357 2362 2571 0
2357 -2362 2571 0
-2571 -2376 -2539 0
2571 2376 -2539 0
-2571 2376 2539 0
2571 -2376 2539 0
-2358 -2363 -2572 0
2358 2363 -2572 0
-2358 2363 2572 0
2358 -2363 2572 0
-2572 -2345 -2540 0
2572 2345 -2540 0
-2572 2345 2540 0
2572 -2345 2540 0
-2359 -2364 -2573 0
2359 2364 -2573 0
-2359 2364 2573 0
2359 -2364 2573 0
-2573 -2346 -2541 0
2573 2346 -2541 0
-2573 2346 2541 0
2573 -2346 2541 0
-2360 -2365 -2574 0
2360 2365 -2574 0
-2360 2365 2574 0
2360 -2365 2574 0
-2574 -2347 -2542 0
2574 2347 -2542 0
-2574 2347 2542 0
2574 -2347 2542 0
-2361 -2366 -2575 0
2361 2366 -2575 0
-2361 2366 2575 0
2361 -2366 2575 0
-2575 -2348 -2543 0
2575 2348 -2543 0
-2575 2348 2543 0
2575 -2348 2543 0
-2362 -2367 -2576 0
2362 2367 -2576 0
-2362 2367 2576 0
2362 -2367 2576 0
-2576 -2349 -2544 0
2576 2349 -2544 0
-2576 2349 2544 0
2576 -2349 2544 0
-2363 -2368 -2577 0
2363 2368 -2577 0
-2363 2368 2577 0
2363 -2368 2577 0
-2577 -2350 -2545 0
2577 2350 -2545 0
-2577 2350 2545 0
2577 -2350 2545 0
-2364 -2369 -2578 0
2364 2369 -2578 0
-2364 2369 2578 0
2364 -2369 2578 0
-2578 -2351 -2546 0
2578 2351 -2546 0
-2578 2351 2546 0
2578 -2351 2546 0
-2365 -2370 -2579 0
2365 2370 -2579 0
-2365 2370 2579 0
2365 -2370 2579 0
-2579 -2352 -2547 0
2579 2352 -2547 0
-2579 2352 2547 0
2579 -2352 2547 0
-2366 -2371 -2580 0
2366 2371 -2580 0
-2366 2371 2580 0
2366 -2371 2580 0
-2580 -2353 -2548 0
2580 2353 -2548 0
-2580 2353 2548 0
2580 -2353 2548 0
-2367 -2372 -2581 0
2367 2372 -2581 0
-2367 2372 2581 0
2367 -2372 2581 0
-2581 -2354 -2549 0
2581 2354 -2549 0
-2581 2354 2549 0
2581 -2354 2549 0
-2368 -2373 -2582 0
2368 2373 -2582 0
-2368 2373 2582 0
2368 -2373 2582 0
-2582 -2355 -2550 0
2582 2355 -2550 0
-2582 2355 2550 0
2582 -2355 2550 0
-2369 -2374 -2583 0
2369 2374 -2583 0
-2369 2374 2583 0
2369 -2374 2583 0
-2583 -2356 -2551 0
2583 2356 -2551 0
-2583 2356 2551 0
2583 -2356 2551 0
-2370 -2375 -2584 0
2370 2375 -2584 0
-2370 2375 2584 0
2370 -2375 2584 0
-2584 -2357 -2552 0
2584 2357 -2552 0
-2584 2357 2552 0
2584 -2357 2552 0
-2371 -2376 -2585 0
2371 2376 -2585 0
-2371 2376 2585 0
2371 -2376 2585 0
-2585 -2358 -2553 0
2585 2358 -2553 0
-2585 2358 2553 0
2585 -2358 2553 0
-2372 -2345 -2586 0
2372 2345 -2586 0
-2372 2345 2586 0
2372 -2345 2586 0
-2586 -2359 -2554 0
2586 2359 -2554 0
-2586 2359 2554 0
2586 -2359 2554 0
-2373 -2346 -2587 0
2373 2346 -2587 0
-2373 2346 2587 0
2373 -2346 2587 0
-2587 -2360 -2555 0
2587 2360 -2555 0
-2587 2360 2555 0
2587 -2360 2555 0
-2374 -2347 -2588 0
2374 2347 -2588 0
-2374 2347 2588 0
2374 -2347 2588 0
-2588 -2361 -2556 0
2588 2361 -2556 0
-2588 2361 2556 0
2588 -2361 2556 0
-2375 -2348 -2589 0
2375 2348 -2589 0
-2375 2348 2589 0
2375 -2348 2589 0
-2589 -2362 -2557 0
2589 2362 -2557 0
-2589 2362 2557 0
2589 -2362 2557 0
-2376 -2349 -2590 0
2376 2349 -2590 0
-2376 2349 2590 0
2376 -2349 2590 0
-2590 -2363 -2558 0
2590 2363 -2558 0
-2590 2363 2558 0
2590 -2363 2558 0
-2345 -2350 -2591 0
2345 2350 -2591 0
-2345 2350 2591 0
2345 -2350 2591 0
-2591 -2364 -2559 0
2591 2364 -2559 0
-2591 2364 2559 0
2591 -2364 2559 0
-2346 -2351 -2592 0
2346 2351 -2592 0
-2346 2351 2592 0
2346 -2351 2592 0
-2592 -2365 -2560 0
2592 2365 -2560 0
-2592 2365 2560 0
2592 -2365 2560 0
-2347 -2352 -2593 0
2347 2352 -2593 0
-2347 2352 2593 0
2347 -2352 2593 0
-2593 -2366 -2561 0
2593 2366 -2561 0
-2593 2366 2561 0
2593 -2366 2561 0
-2348 -2353 -2594 0
2348 2353 -2594 0
-2348 2353 2594 0
2348 -2353 2594 0
-2594 -2367 -2562 0
2594 2367 -2562 0
-2594 2367 2562 0
2594 -2367 2562 0
-2349 -2354 -2595 0
2349 2354 -2595 0
-2349 2354 2595 0
2349 -2354 2595 0
-2595 -2368 -2563 0
2595 2368 -2563 0
-2595 2368 2563 0
2595 -2368 2563 0
-2350 -2355 -2596 0
2350 2355 -2596 0
-2350 2355 2596 0
2350 -2355 2596 0
-2596 -2369 -2564 0
2596 2369 -2564 0
-2596 2369 2564 0
2596 -2369 2564 0
-2345 -1463 2597 0
-2345 1463 -2597 0
2345 -641 2597 0
2345 641 -2597 0
-2346 -1464 2598 0
-2346 1464 -2598 0
2346 -642 2598 0
2346 642 -2598 0
-2347 -1465 2599 0
-2347 1465 -2599 0
2347 -643 2599 0
2347 643 -2599 0
-2348 -1466 2600 0
-2348 1466 -2600 0
2348 -644 2600 0
2348 644 -2600 0
-2349 -1467 2601 0
-2349 1467 -2601 0
2349 -645 2601 0
2349 645 -2601 0
-2350 -1468 2602 0
-2350 1468 -2602 0
2350 -646 2602 0
2350 646 -2602 0
-2351 -1469 2603 0
-2351 1469 -2603 0
2351 -647 2603 0
2351 647 -2603 0
-2352 -1470 2604 0
-2352 1470 -2604 0
2352 -648 2604 0
2352 648 -2604 0
-2353 -1471 2605 0
-2353 1471 -2605 0
2353 -649 2605 0
2353 649 -2605 0
-2354 -1472 2606 0
-2354 1472 -2606 0
2354 -650 2606 0
2354 650 -2606 0
-2355 -1473 2607 0
-2355 1473 -2607 0
2355 -651 2607 0
2355 651 -2607 0
-2356 -1474 2608 0
-2356 1474 -2608 0
2356 -652 2608 0
2356 652 -2608 0
-2357 -1475 2609 0
-2357 1475 -2609 0
2357 -653 2609 0
2357 653 -2609 0
-2358 -1476 2610 0
-2358 1476 -2610 0
2358 -654 2610 0
2358 654 -2610 0
-2359 -1477 2611 0
-2359 1477 -2611 0
2359 -655 2611 0
2359 655 -2611 0
-2360 -1478 2612 0
-2360 1478 -2612 0
2360 -656 2612 0
2360 656 -2612 0
-2361 -1479 2613 0
-2361 1479 -2613 0
2361 -657 2613 0
2361 657 -2613 0
-2362 -1480 2614 0
-2362 1480 -2614 0
2362 -658 2614 0
2362 658 -2614 0
-2363 -1481 2615 0
-2363 1481 -2615 0
2363 -659 2615 0
2363 659 -2615 0
-2364 -1482 2616 0
-2364 1482 -2616 0
2364 -660 2616 0
2364 660 -2616 0
-2365 -1483 2617 0
-2365 1483 -2617 0
2365 -661 2617 0
2365 661 -2617 0
-2366 -1484 2618 0
-2366 1484 -2618 0
2366 -662 2618 0
2366 662 -2618 0
-2367 -1485 2619 0
-2367 1485 -2619 0
2367 -663 2619 0
2367 663 -2619 0
-2368 -1486 2620 0
-2368 1486 -2620 0
2368 -664 2620 0
2368 664 -2620 0
-2369 -1487 2621 0
-2369 1487 -2621 0
2369 -665 2621 0
2369 665 -2621 0
-2370 -1488 2622 0
-2370 1488 -2622 0
2370 -666 2622 0
2370 666 -2622 0
-2371 -1489 2623 0
-2371 1489 -2623 0
2371 -667 2623 0
2371 667 -2623 0
-2372 -1490 2624 0
-2372 1490 -2624 0
2372 -668 2624 0
2372 668 -2624 0
-2373 -1491 2625 0
-2373 1491 -2625 0
2373 -669 2625 0
2373 669 -2625 0
-2374 -1492 2626 0
-2374 1492 -2626 0
2374 -670 2626 0
2374 670 -2626 0
-2375 -1493 2627 0
-2375 1493 -2627 0
2375 -671 2627 0
2375 671 -2627 0
-2376 -1494 2628 0
-2376 1494 -2628 0
2376 -672 2628 0
2376 672 -2628 0
-673 -2533 -2629 0
673 2533 -2629 0
-673 2533 2629 0
673 -2533 2629 0
-673 -2533 2661 0
673 -2661 0
2533 -2661 0
-674 -2534 -2662 0
674 2534 -2662 0
-674 2534 2662 0
674 -2534 2662 0
-2662 -2661 -2630 0
2662 2661 -2630 0
-2662 2661 2630 0
2662 -2661 2630 0
-674 -2534 2663 0
-674 -2661 2663 0
-2534 -2661 2663 0
674 2534 -2663 0
674 2661 -2663 0
2534 2661 -2663 0
-675 -2535 -2664 0
675 2535 -2664 0
-675 2535 2664 0
675 -2535 2664 0
-2664 -2663 -2631 0
2664 2663 -2631 0
-2664 2663 2631 0
2664 -2663 2631 0
-675 -2535 2665 0
-675 -2663 2665 0
-2535 -2663 2665 0
675 2535 -2665 0
675 2663 -2665 0
2535 2663 -2665 0
-676 -2536 -2666 0
676 2536 -2666 0
-676 2536 2666 0
676 -2536 2666 0
-2666 -2665 -2632 0
2666 2665 -2632 0
-2666 2665 2632 0
2666 -2665 2632 0
-676 -2536 2667 0
-676 -2665 2667 0
-2536 -2665 2667 0
676 2536 -2667 0
676 2665 -2667 0
2536 2665 -2667 0
-677 -2537 -2668 0
677 2537 -2668 0
-677 2537 2668 0
677 -2537 2668 0
-2668 -2667 -2633 0
2668 2667 -2633 0
-2668 2667 2633 0
2668 -2667 2633 0
-677 -2537 2669 0
-677 -2667 2669 0
-2537 -2667 2669 0
677 2537 -2669 0
677 2667 -2669 0
2537 2667 -2669 0
-678 -2538 -2670 0
678 2538 -2670 0
-678 2538 2670 0
678 -2538 2670 0
-2670 -2669 -2634 0
2670 2669 -2634 0
-2670 2669 2634 0
2670 -2669 2634 0
-678 -2538 2671 0
-678 -2669 2671 0
-2538 -2669 2671 0
678 2538 -2671 0
678 2669 -2671 0
2538 2669 -2671 0
-679 -2539 -2672 0
679 2539 -2672 0
-679 2539 2672 0
679 -2539 2672 0
-2672 -2671 -2635 0
2672 2671 -2635 0
-2672 2671 2635 0
2672 -2671 2635 0
-679 -2539 2673 0
-679 -2671 2673 0
-2539 -2671 2673 0
679 2539 -2673 0
679 2671 -2673 0
2539 2671 -2673 0
-680 -2540 -2674 0
680 2540 -2674 0
-680 2540 2674 0
680 -2540 2674 0
-2674 -2673 -2636 0
2674 2673 -2636 0
-2674 2673 2636 0
2674 -2673 2636 0
-680 -2540 2675 0
-680 -2673 2675 0
-2540 -2673 2675 0
680 2540 -2675 0
680 2673 -2675 0
2540 2673 -2675 0
-681 -2541 -2676 0
681 2541 -2676 0
-681 2541 2676 0
681 -2541 2676 0
-2676 -2675 -2637 0
2676 2675 -2637 0
-2676 2675 2637 0
2676 -2675 2637 0
-681 -2541 2677 0
-681 -2675 2677 0
-2541 -2675 2677 0
681 2541 -2677 0
681 2675 -2677 0
2541 2675 -2677 0
-682 -2542 -2678 0
682 2542 -2678 0
-682 2542 2678 0
682 -2542 2678 0
-2678 -2677 -2638 0
2678 2677 -2638 0
-2678 2677 2638 0
2678 -2677 2638 0
-682 -2542 2679 0
-682 -2677 2679 0
-2542 -2677 2679 0
682 2542 -2679 0
682 2677 -2679 0
2542 2677 -2679 0
-683 -2543 -2680 0
683 2543 -2680 0
-683 2543 2680 0
683 -2543 2680 0
-2680 -2679 -2639 0
2680 2679 -2639 0
-2680 2679 2639 0
2680 -2679 2639 0
-683 -2543 2681 0
-683 -2679 2681 0
-2543 -2679 2681 0
683 2543 -2681 0
683 2679 -2681 0
2543 2679 -2681 0
-684 -2544 -2682 0
684 2544 -2682 0
-684 2544 2682 0
684 -2544 2682 0
-2682 -2681 -2640 0
2682 2681 -2640 0
-2682 2681 2640 0
2682 -2681 2640 0
-684 -2544 2683 0
-684 -2681 2683 0
-2544 -2681 2683 0
684 2544 -2683 0
684 2681 -2683 0
2544 2681 -2683 0
-685 -2545 -2684 0
685 2545 -2684 0
-685 2545 2684 0
685 -2545 2684 0
-2684 -2683 -2641 0
2684 2683 -2641 0
-2684 2683 2641 0
2684 -2683 2641 0
-685 -2545 2685 0
-685 -2683 2685 0
-2545 -2683 2685 0
685 2545 -2685 0
685 2683 -2685 0
2545 2683 -2685 0
-686 -2546 -2686 0
686 2546 -2686 0
-686 2546 2686 0
686 -2546 2686 0
-2686 -2685 -2642 0
2686 2685 -2642 0
-2686 2685 2642 0
2686 -2685 2642 0
-686 -2546 2687 0
-686 -2685 2687 0
-2546 -2685 2687 0
686 2546 -2687 0
686 2685 -2687 0
2546 2685 -2687 0
-687 -2547 -2688 0
687 2547 -2688 0
-687 2547 2688 0
687 -2547 2688 0
-2688 -2687 -2643 0
2688 2687 -2643 0
-2688 2687 2643 0
2688 -2687 2643 0
-687 -2547 2689 0
-687 -2687 2689 0
-2547 -2687 2689 0
687 2547 -2689 0
687 2687 -2689 0
2547 2687 -2689 0
-688 -2548 -2690 0
688 2548 -2690 0
-688 2548 2690 0
688 -2548 2690 0
-2690 -2689 -2644 0
2690 2689 -2644 0
-2690 2689 2644 0
2690 -2689 2644 0
-688 -2548 2691 0
-688 -2689 2691 0
-2548 -2689 2691 0
688 2548 -2691 0
688 2689 -2691 0
2548 2689 -2691 0
-689 -2549 -2692 0
689 2549 -2692 0
-689 2549 2692 0
689 -2549 2692 0
-2692 -2691 -2645 0
2692 2691 -2645 0
-2692 2691 2645 0
2692 -2691 2645 0
-689 -2549 2693 0
-689 -2691 2693 0
-2549 -2691 2693 0
689 2549 -2693 0
689 2691 -2693 0
2549 2691 -2693 0
-690 -2550 -2694 0
690 2550 -2694 0
-690 2550 2694 0
690 -2550 2694 0
-2694 -2693 -2646 0
2694 2693 -2646 0
-2694 2693 2646 0
2694 -2693 2646 0
-690 -2550 2695 0
-690 -2693 2695 0
-2550 -2693 2695 0
690 2550 -2695 0
690 2693 -2695 0
2550 2693 -2695 0
-691 -2551 -2696 0
691 2551 -2696 0
-691 2551 2696 0
691 -2551 2696 0
-2696 -2695 -2647 0
2696 2695 -2647 0
-2696 2695 2647 0
2696 -2695 2647 0
-691 -2551 2697 0
-691 -2695 2697 0
-2551 -2695 2697 0
691 2551 -2697 0
691 2695 -2697 0
2551 2695 -2697 0
-692 -2552 -2698 0
692 2552 -2698 0
-692 2552 2698 0
692 -2552 2698 0
-2698 -2697 -2648 0
2698 2697 -2648 0
-2698 2697 2648 0
2698 -2697 2648 0
-692 -2552 2699 0
-692 -2697 2699 0
-2552 -2697 2699 0
692 2552 -2699 0
692 2697 -2699 0
2552 2697 -2699 0
-693 -2553 -2700 0
693 2553 -2700 0
-693 2553 2700 0
693 -2553 2700 0
-2700 -2699 -2649 0
2700 2699 -2649 0
-2700 2699 2649 0
2700 -2699 2649 0
-693 -2553 2701 0
-693 -2699 2701 0
-2553 -2699 2701 0
693 2553 -2701 0
693 2699 -2701 0
2553 2699 -2701 0
-694 -2554 -2702 0
694 2554 -2702 0
-694 2554 2702 0
694 -2554 2702 0
-2702 -2701 -2650 0
2702 2701 -2650 0
-2702 2701 2650 0
2702 -2701 2650 0
-694 -2554 2703 0
-694 -2701 2703 0
-2554 -2701 2703 0
694 2554 -2703 0
694 2701 -2703 0
2554 2701 -2703 0
-695 -2555 -2704 0
695 2555 -2704 0
-695 2555 2704 0
695 -2555 2704 0
-2704 -2703 -2651 0
2704 2703 -2651 0
-2704 2703 2651 0
2704 -2703 2651 0
-695 -2555 2705 0
-695 -2703 2705 0
-2555 -2703 2705 0
695 2555 -2705 0
695 2703 -2705 0
2555 2703 -2705 0
-696 -2556 -2706 0
696 2556 -2706 0
-696 2556 2706 0
696 -2556 2706 0
-2706 -2705 -2652 0
2706 2705 -2652 0
-2706 2705 2652 0
2706 -2705 2652 0
-696 -2556 2707 0
-696 -2705 2707 0
-2556 -2705 2707 0
696 2556 -2707 0
696 2705 -2707 0
2556 2705 -2707 0
-697 -2557 -2708 0
697 2557 -2708 0
-697 2557 2708 0
697 -2557 2708 0
-2708 -2707 -2653 0
2708 2707 -2653 0
-2708 2707 2653 0
2708 -2707 2653 0
-697 -2557 2709 0
-697 -2707 2709 0
-2557 -2707 2709 0
697 2557 -2709 0
697 2707 -2709 0
2557 2707 -2709 0
-698 -2558 -2710 0
698 2558 -2710 0
-698 2558 2710 0
698 -2558 2710 0
-2710 -2709 -2654 0
2710 2709 -2654 0
-2710 2709 2654 0
2710 -2709 2654 0
-698 -2558 2711 0
-698 -2709 2711 0
-2558 -2709 2711 0
698 2558 -2711 0
698 2709 -2711 0
2558 2709 -2711 0
-699 -2559 -2712 0
699 2559 -2712 0
-699 2559 2712 0
699 -2559 2712 0
-2712 -2711 -2655 0
2712 2711 -2655 0
-2712 2711 2655 0
2712 -2711 2655 0
-699 -2559 2713 0
-699 -2711 2713 0
-2559 -2711 2713 0
699 2559 -2713 0
699 2711 -2713 0
2559 2711 -2713 0
-700 -2560 -2714 0
700 2560 -2714 0
-700 2560 2714 0
700 -2560 2714 0
-2714 -2713 -2656 0
2714 2713 -2656 0
-2714 2713 2656 0
2714 -2713 2656 0
-700 -2560 2715 0
-700 -2713 2715 0
-2560 -2713 2715 0
700 2560 -2715 0
700 2713 -2715 0
2560 2713 -2715 0
-701 -2561 -2716 0
701 2561 -2716 0
-701 2561 2716 0
701 -2561 2716 0
-2716 -2715 -2657 0
2716 2715 -2657 0
-2716 2715 2657 0
2716 -2715 2657 0
-701 -2561 2717 0
-701 -2715 2717 0
-2561 -2715 2717 0
701 2561 -2717 0
701 2715 -2717 0
2561 2715 -2717 0
-702 -2562 -2718 0
702 2562 -2718 0
-702 2562 2718 0
702 -2562 2718 0
-2718 -2717 -2658 0
2718 2717 -2658 0
-2718 2717 2658 0
2718 -2717 2658 0
-702 -2562 2719 0
-702 -2717 2719 0
-2562 -2717 2719 0
702 2562 -2719 0
702 2717 -2719 0
2562 2717 -2719 0
-703 -2563 -2720 0
703 2563 -2720 0
-703 2563 2720 0
703 -2563 2720 0
-2720 -2719 -2659 0
2720 2719 -2659 0
-2720 2719 2659 0
2720 -2719 2659 0
-703 -2563 2721 0
-703 -2719 2721 0
-2563 -2719 2721 0
703 2563 -2721 0
703 2719 -2721 0
2563 2719 -2721 0
-704 -2564 -2722 0
704 2564 -2722 0
-704 2564 2722 0
704 -2564 2722 0
-2722 -2721 -2660 0
2722 2721 -2660 0
-2722 2721 2660 0
2722 -2721 2660 0
-2597 -65 -2723 0
2597 65 -2723 0
-2597 65 2723 0
2597 -65 2723 0
-2597 -65 2755 0
2597 -2755 0
65 -2755 0
-2598 -66 -2756 0
2598 66 -2756 0
-2598 66 2756 0
2598 -66 2756 0
-2756 -2755 -2724 0
2756 2755 -2724 0
-2756 2755 2724 0
2756 -2755 2724 0
-2598 -66 2757 0
-2598 -2755 2757 0
-66 -2755 2757 0
2598 66 -2757 0
2598 2755 -2757 0
66 2755 -2757 0
-2599 -67 -2758 0
2599 67 -2758 0
-2599 67 2758 0
2599 -67 2758 0
-2758 -2757 -2725 0
2758 2757 -2725 0
-2758 2757 2725 0
2758 -2757 2725 0
-2599 -67 2759 0
-2599 -2757 2759 0
-67 -2757 2759 0
2599 67 -2759 0
2599 2757 -2759 0
67 2757 -2759 0
-2600 -68 -2760 0
2600 68 -2760 0
-2600 68 2760 0
2600 -68 2760 0
-2760 -2759 -2726 0
2760 2759 -2726 0
-2760 2759 2726 0
2760 -2759 2726 0
-2600 -68 2761 0
-2600 -2759 2761 0
-68 -2759 2761 0
2600 68 -2761 0
2600 2759 -2761 0
68 2759 -2761 0
-2601 -69 -2762 0
2601 69 -2762 0
-2601 69 2762 0
2601 -69 2762 0
-2762 -2761 -2727 0
2762 2761 -2727 0
-2762 2761 2727 0
2762 -2761 2727 0
-2601 -69 2763 0
-2601 -2761 2763 0
-69 -2761 2763 0
2601 69 -2763 0
2601 2761 -2763 0
69 2761 -2763 0
-2602 -70 -2764 0
2602 70 -2764 0
-2602 70 2764 0
2602 -70 2764 0
-2764 -2763 -2728 0
2764 2763 -2728 0
-2764 2763 2728 0
2764 -2763 2728 0
-2602 -70 2765 0
-2602 -2763 2765 0
-70 -2763 2765 0
2602 70 -2765 0
2602 2763 -2765 0
70 2763 -2765 0
-2603 -71 -2766 0
2603 71 -2766 0
-2603 71 2766 0
2603 -71 2766 0
-2766 -2765 -2729 0
2766 2765 -2729 0
-2766 2765 2729 0
2766 -2765 2729 0
-2603 -71 2767 0
-2603 -2765 2767 0
-71 -2765 2767 0
2603 71 -2767 0
2603 2765 -2767 0
71 2765 -2767 0
-2604 -72 -2768 0
2604 72 -2768 0
-2604 72 2768 0
2604 -72 2768 0
-2768 -2767 -2730 0
2768 2767 -2730 0
-2768 2767 2730 0
2768 -2767 2730 0
-2604 -72 2769 0
-2604 -2767 2769 0
-72 -2767 2769 0
2604 72 -2769 0
2604 2767 -2769 0
72 2767 -2769 0
-2605 -73 -2770 0
2605 73 -2770 0
-2605 73 2770 0
2605 -73 2770 0
-2770 -2769 -2731 0
2770 2769 -2731 0
-2770 2769 2731 0
2770 -2769 2731 0
-2605 -73 2771 0
-2605 -2769 2771 0
-73 -2769 2771 0
2605 73 -2771 0
2605 2769 -2771 0
73 2769 -2771 0
-2606 -74 -2772 0
2606 74 -2772 0
-2606 74 2772 0
2606 -74 2772 0
-2772 -2771 -2732 0
2772 2771 -2732 0
-2772 2771 2732 0
2772 -2771 2732 0
-2606 -74 2773 0
-2606 -2771 2773 0
-74 -2771 2773 0
2606 74 -2773 0
2606 2771 -2773 0
74 2771 -2773 0
-2607 -75 -2774 0
2607 75 -2774 0
-2607 75 2774 0
2607 -75 2774 0
-2774 -2773 -2733 0
2774 2773 -2733 0
-2774 2773 2733 0
2774 -2773 2733 0
-2607 -75 2775 0
-2607 -2773 2775 0
-75 -2773 2775 0
2607 75 -2775 0
2607 2773 -2775 0
75 2773 -2775 0
-2608 -76 -2776 0
2608 76 -2776 0
-2608 76 2776 0
2608 -76 2776 0
-2776 -2775 -2734 0
2776 2775 -2734 0
-2776 2775 2734 0
2776 -2775 2734 0
-2608 -76 2777 0
-2608 -2775 2777 0
-76 -2775 2777 0
2608 76 -2777 0
2608 2775 -2777 0
76 2775 -2777 0
-2609 -77 -2778 0
2609 77 -2778 0
-2609 77 2778 0
2609 -77 2778 0
-2778 -2777 -2735 0
2778 2777 -2735 0
-2778 2777 2735 0
2778 -2777 2735 0
-2609 -77 2779 0
-2609 -2777 2779 0
-77 -2777 2779 0
2609 77 -2779 0
2609 2777 -2779 0
77 2777 -2779 0
-2610 -78 -2780 0
2610 78 -2780 0
-2610 78 2780 0
2610 -78 2780 0
-2780 -2779 -2736 0
2780 2779 -2736 0
-2780 2779 2736 0
2780 -2779 2736 0
-2610 -78 2781 0
-2610 -2779 2781 0
-78 -2779 2781 0
2610 78 -2781 0
2610 2779 -2781 0
78 2779 -2781 0
-2611 -79 -2782 0
2611 79 -2782 0
-2611 79 2782 0
2611 -79 2782 0
-2782 -2781 -2737 0
2782 2781 -2737 0
-2782 2781 2737 0
2782 -2781 2737 0
-2611 -79 2783 0
-2611 -2781 2783 0
-79 -2781 2783 0
2611 79 -2783 0
2611 2781 -2783 0
79 2781 -2783 0
-2612 -80 -2784 0
2612 80 -2784 0
-2612 80 2784 0
2612 -80 2784 0
-2784 -2783 -2738 0
2784 2783 -2738 0
-2784 2783 2738 0
2784 -2783 2738 0
-2612 -80 2785 0
-2612 -2783 2785 0
-80 -2783 2785 0
2612 80 -2785 0
2612 2783 -2785 0
80 2783 -2785 0
-2613 -81 -2786 0
2613 81 -2786 0
-2613 81 2786 0
2613 -81 2786 0
-2786 -2785 -2739 0
2786 2785 -2739 0
-2786 2785 2739 0
2786 -2785 2739 0
-2613 -81 2787 0
-2613 -2785 2787 0
-81 -2785 2787 0
2613 81 -2787 0
2613 2785 -2787 0
81 2785 -2787 0
-2614 -82 -2788 0
2614 82 -2788 0
-2614 82 2788 0
2614 -82 2788 0
-2788 -2787 -2740 0
2788 2787 -2740 0
-2788 2787 2740 0
2788 -2787 2740 0
-2614 -82 2789 0
-2614 -2787 2789 0
-82 -2787 2789 0
2614 82 -2789 0
2614 2787 -2789 0
82 2787 -2789 0
-2615 -83 -2790 0
2615 83 -2790 0
-2615 83 2790 0
2615 -83 2790 0
-2790 -2789 -2741 0
2790 2789 -2741 0
-2790 2789 2741 0
2790 -2789 2741 0
-2615 -83 2791 0
-2615 -2789 2791 0
-83 -2789 2791 0
2615 83 -2791 0
2615 2789 -2791 0
83 2789 -2791 0
-2616 -84 -2792 0
2616 84 -2792 0
-2616 84 2792 0
2616 -84 2792 0
-2792 -2791 -2742 0
2792 2791 -2742 0
-2792 2791 2742 0
2792 -2791 2742 0
-2616 -84 2793 0
-2616 -2791 2793 0
-84 -2791 2793 0
2616 84 -2793 0
2616 2791 -2793 0
84 2791 -2793 0
-2617 -85 -2794 0
2617 85 -2794 0
-2617 85 2794 0
2617 -85 2794 0
-2794 -2793 -2743 0
2794 2793 -2743 0
-2794 2793 2743 0
2794 -2793 2743 0
-2617 -85 2795 0
-2617 -2793 2795 0
-85 -2793 2795 0
2617 85 -2795 0
2617 2793 -2795 0
85 2793 -2795 0
-2618 -86 -2796 0
2618 86 -2796 0
-2618 86 2796 0
2618 -86 2796 0
-2796 -2795 -2744 0
2796 2795 -2744 0
-2796 2795 2744 0
2796 -2795 2744 0
-2618 -86 2797 0
-2618 -2795 2797 0
-86 -2795 2797 0
2618 86 -2797 0
2618 2795 -2797 0
86 2795 -2797 0
-2619 -87 -2798 0
2619 87 -2798 0
-2619 87 2798 0
2619 -87 2798 0
-2798 -2797 -2745 0
2798 2797 -2745 0
-2798 2797 2745 0
2798 -2797 2745 0
-2619 -87 2799 0
-2619 -2797 2799 0
-87 -2797 2799 0
2619 87 -2799 0
2619 2797 -2799 0
87 2797 -2799 0
-2620 -88 -2800 0
2620 88 -2800 0
-2620 88 2800 0
2620 -88 2800 0
-2800 -2799 -2746 0
2800 2799 -2746 0
-2800 2799 2746 0
2800 -2799 2746 0
-2620 -88 2801 0
-2620 -2799 2801 0
-88 -2799 2801 0
2620 88 -2801 0
2620 2799 -2801 0
88 2799 -2801 0
-2621 -89 -2802 0
2621 89 -2802 0
-2621 89 2802 0
2621 -89 2802 0
-2802 -2801 -2747 0
2802 2801 -2747 0
-2802 2801 2747 0
2802 -2801 2747 0
-2621 -89 2803 0
-2621 -2801 2803 0
-89 -2801 2803 0
2621 89 -2803 0
2621 2801 -2803 0
89 2801 -2803 0
-2622 -90 -2804 0
2622 90 -2804 0
-2622 90 2804 0
2622 -90 2804 0
-2804 -2803 -2748 0
2804 2803 -2748 0
-2804 2803 2748 0
2804 -2803 2748 0
-2622 -90 2805 0
-2622 -2803 2805 0
-90 -2803 2805 0
2622 90 -2805 0
2622 2803 -2805 0
90 2803 -2805 0
-2623 -91 -2806 0
2623 91 -2806 0
-2623 91 2806 0
2623 -91 2806 0
-2806 -2805 -2749 0
2806 2805 -2749 0
-2806 2805 2749 0
2806 -2805 2749 0
-2623 -91 2807 0
-2623 -2805 2807 0
-91 -2805 2807 0
2623 91 -2807 0
2623 2805 -2807 0
91 2805 -2807 0
-2624 -92 -2808 0
2624 92 -2808 0
-2624 92 2808 0
2624 -92 2808 0
-2808 -2807 -2750 0
2808 2807 -2750 0
-2808 2807 2750 0
2808 -2807 2750 0
-2624 -92 2809 0
-2624 -2807 2809 0
-92 -2807 2809 0
2624 92 -2809 0
2624 2807 -2809 0
92 2807 -2809 0
-2625 -93 -2810 0
2625 93 -2810 0
-2625 93 2810 0
2625 -93 2810 0
-2810 -2809 -2751 0
2810 2809 -2751 0
-2810 2809 2751 0
2810 -2809 2751 0
-2625 -93 2811 0
-2625 -2809 2811 0
-93 -2809 2811 0
2625 93 -2811 0
2625 2809 -2811 0
93 2809 -2811 0
-2626 -94 -2812 0
2626 94 -2812 0
-2626 94 2812 0
2626 -94 2812 0
-2812 -2811 -2752 0
2812 2811 -2752 0
-2812 2811 2752 0
2812 -2811 2752 0
-2626 -94 2813 0
-2626 -2811 2813 0
-94 -2811 2813 0
2626 94 -2813 0
2626 2811 -2813 0
94 2811 -2813 0
-2627 -95 -2814 0
2627 95 -2814 0
-2627 95 2814 0
2627 -95 2814 0
-2814 -2813 -2753 0
2814 2813 -2753 0
-2814 2813 2753 0
2814 -2813 2753 0
-2627 -95 2815 0
-2627 -2813 2815 0
-95 -2813 2815 0
2627 95 -2815 0
2627 2813 -2815 0
95 2813 -2815 0
-2628 -96 -2816 0
2628 96 -2816 0
-2628 96 2816 0
2628 -96 2816 0
-2816 -2815 -2754 0
2816 2815 -2754 0
-2816 2815 2754 0
2816 -2815 2754 0
2817 0
2818 0
2819 0
2820 0
-2821 0
-2822 0
2823 0
2824 0
2825 0
2826 0
-2827 0
2828 0
2829 0
2830 0
2831 0
2832 0
-2833 0
-2834 0
-2835 0
-2836 0
-2837 0
-2838 0
2839 0
2840 0
2841 0
-2842 0
2843 0
-2844 0
2845 0
2846 0
-2847 0
2848 0
-2629 -2817 -2849 0
2629 2817 -2849 0
-2629 2817 2849 0
2629 -2817 2849 0
-2629 -2817 2881 0
2629 -2881 0
2817 -2881 0
-2630 -2818 -2882 0
2630 2818 -2882 0
-2630 2818 2882 0
2630 -2818 2882 0
-2882 -2881 -2850 0
2882 2881 -2850 0
-2882 2881 2850 0
2882 -2881 2850 0
-2630 -2818 2883 0
-2630 -2881 2883 0
-2818 -2881 2883 0
2630 2818 -2883 0
2630 2881 -2883 0
2818 2881 -2883 0
-2631 -2819 -2884 0
2631 2819 -2884 0
-2631 2819 2884 0
2631 -2819 2884 0
-2884 -2883 -2851 0
2884 2883 -2851 0
-2884 2883 2851 0
2884 -2883 2851 0
-2631 -2819 2885 0
-2631 -2883 2885 0
-2819 -2883 2885 0
2631 2819 -2885 0
2631 2883 -2885 0
2819 2883 -2885 0
-2632 -2820 -2886 0
2632 2820 -2886 0
-2632 2820 2886 0
2632 -2820 2886 0
-2886 -2885 -2852 0
2886 2885 -2852 0
-2886 2885 2852 0
2886 -2885 2852 0
-2632 -2820 2887 0
-2632 -2885 2887 0
-2820 -2885 2887 0
2632 2820 -2887 0
2632 2885 -2887 0
2820 2885 -2887 0
-2633 -2821 -2888 0
2633 2821 -2888 0
-2633 2821 2888 0
2633 -2821 2888 0
-2888 -2887 -2853 0
2888 2887 -2853 0
-2888 2887 2853 0
2888 -2887 2853 0
-2633 -2821 2889 0
-2633 -2887 2889 0
-2821 -2887 2889 0
2633 2821 -2889 0
2633 2887 -2889 0
2821 2887 -2889 0
-2634 -2822 -2890 0
2634 2822 -2890 0
-2634 2822 2890 0
2634 -2822 2890 0
-2890 -2889 -2854 0
2890 2889 -2854 0
-2890 2889 2854 0
2890 -2889 2854 0
-2634 -2822 2891 0
-2634 -2889 2891 0
-2822 -2889 2891 0
2634 2822 -2891 0
2634 2889 -2891 0
2822 2889 -2891 0
-2635 -2823 -2892 0
2635 2823 -2892 0
-2635 2823 2892 0
2635 -2823 2892 0
-2892 -2891 -2855 0
2892 2891 -2855 0
-2892 2891 2855 0
2892 -2891 2855 0
-2635 -2823 2893 0
-2635 -2891 2893 0
-2823 -2891 2893 0
2635 2823 -2893 0
2635 2891 -2893 0
2823 2891 -2893 0
-2636 -2824 -2894 0
2636 2824 -2894 0
-2636 2824 2894 0
2636 -2824 2894 0
-2894 -2893 -2856 0
2894 2893 -2856 0
-2894 2893 2856 0
2894 -2893 2856 0
-2636 -2824 2895 0
-2636 -2893 2895 0
-2824 -2893 2895 0
2636 2824 -2895 0
2636 2893 -2895 0
2824 2893 -2895 0
-2637 -2825 -2896 0
2637 2825 -2896 0
-2637 2825 2896 0
2637 -2825 2896 0
-2896 -2895 -2857 0
2896 2895 -2857 0
-2896 2895 2857 0
2896 -2895 2857 0
-2637 -2825 2897 0
-2637 -2895 2897 0
-2825 -2895 2897 0
2637 2825 -2897 0
2637 2895 -2897 0
2825 2895 -2897 0
-2638 -2826 -2898 0
2638 2826 -2898 0
-2638 2826 2898 0
2638 -2826 2898 0
-2898 -2897 -2858 0
2898 2897 -2858 0
-2898 2897 2858 0
2898 -2897 2858 0
-2638 -2826 2899 0
-2638 -2897 2899 0
-2826 -2897 2899 0
2638 2826 -2899 0
2638 2897 -2899 0
2826 2897 -2899 0
-2639 -2827 -2900 0
2639 2827 -2900 0
-2639 2827 2900 0
2639 -2827 2900 0
-2900 -2899 -2859 0
2900 2899 -2859 0
-2900 2899 2859 0
2900 -2899 2859 0
-2639 -2827 2901 0
-2639 -2899 2901 0
-2827 -2899 2901 0
2639 2827 -2901 0
2639 2899 -2901 0
2827 2899 -2901 0
-2640 -2828 -2902 0
2640 2828 -2902 0
-2640 2828 2902 0
2640 -2828 2902 0
-2902 -2901 -2860 0
2902 2901 -2860 0
-2902 2901 2860 0
2902 -2901 2860 0
-2640 -2828 2903 0
-2640 -2901 2903 0
-2828 -2901 2903 0
2640 2828 -2903 0
2640 2901 -2903 0
2828 2901 -2903 0
-2641 -2829 -2904 0
2641 2829 -2904 0
-2641 2829 2904 0
2641 -2829 2904 0
-2904 -2903 -2861 0
2904 2903 -2861 0
-2904 2903 2861 0
2904 -2903 2861 0
-2641 -2829 2905 0
-2641 -2903 2905 0
-2829 -2903 2905 0
2641 2829 -2905 0
2641 2903 -2905 0
2829 2903 -2905 0
-2642 -2830 -2906 0
2642 2830 -2906 0
-2642 2830 2906 0
2642 -2830 2906 0
-2906 -2905 -2862 0
2906 2905 -2862 0
-2906 2905 2862 0
2906 -2905 2862 0
-2642 -2830 2907 0
-2642 -2905 2907 0
-2830 -2905 2907 0
2642 2830 -2907 0
2642 2905 -2907 0
2830 2905 -2907 0
-2643 -2831 -2908 0
2643 2831 -2908 0
-2643 2831 2908 0
2643 -2831 2908 0
-2908 -2907 -2863 0
2908 2907 -2863 0
-2908 2907 2863 0
2908 -2907 2863 0
-2643 -2831 2909 0
-2643 -2907 2909 0
-2831 -2907 2909 0
2643 2831 -2909 0
2643 2907 -2909 0
2831 2907 -2909 0
-2644 -2832 -2910 0
2644 2832 -2910 0
-2644 2832 2910 0
2644 -2832 2910 0
-2910 -2909 -2864 0
2910 2909 -2864 0
-2910 2909 2864 0
2910 -2909 2864 0
-2644 -2832 2911 0
-2644 -2909 2911 0
-2832 -2909 2911 0
2644 2832 -2911 0
2644 2909 -2911 0
2832 2909 -2911 0
-2645 -2833 -2912 0
2645 2833 -2912 0
-2645 2833 2912 0
2645 -2833 2912 0
-2912 -2911 -2865 0
2912 2911 -2865 0
-2912 2911 2865 0
2912 -2911 2865 0
-2645 -2833 2913 0
-2645 -2911 2913 0
-2833 -2911 2913 0
2645 2833 -2913 0
2645 2911 -2913 0
2833 2911 -2913 0
-2646 -2834 -2914 0
2646 2834 -2914 0
-2646 2834 2914 0
2646 -2834 2914 0
-2914 -2913 -2866 0
2914 2913 -2866 0
-2914 2913 2866 0
2914 -2913 2866 0
-2646 -2834 2915 0
-2646 -2913 2915 0
-2834 -2913 2915 0
2646 2834 -2915 0
2646 2913 -2915 0
2834 2913 -2915 0
-2647 -2835 -2916 0
2647 2835 -2916 0
-2647 2835 2916 0
2647 -2835 2916 0
-2916 -2915 -2867 0
2916 2915 -2867 0
-2916 2915 2867 0
2916 -2915 2867 0
-2647 -2835 2917 0
-2647 -2915 2917 0
-2835 -2915 2917 0
2647 2835 -2917 0
2647 2915 -2917 0
2835 2915 -2917 0
-2648 -2836 -2918 0
2648 2836 -2918 0
-2648 2836 2918 0
2648 -2836 2918 0
-2918 -2917 -2868 0
2918 2917 -2868 0
-2918 2917 2868 0
2918 -2917 2868 0
-2648 -2836 2919 0
-2648 -2917 2919 0
-2836 -2917 2919 0
2648 2836 -2919 0
2648 2917 -2919 0
2836 2917 -2919 0
-2649 -2837 -2920 0
2649 2837 -2920 0
-2649 2837 2920 0
2649 -2837 2920 0
-2920 -2919 -2869 0
2920 2919 -2869 0
-2920 2919 2869 0
2920 -2919 2869 0
-2649 -2837 2921 0
-2649 -2919 2921 0
-2837 -2919 2921 0
2649 2837 -2921 0
2649 2919 -2921 0
2837 2919 -2921 0
-2650 -2838 -2922 0
2650 2838 -2922 0
-2650 2838 2922 0
2650 -2838 2922 0
-2922 -2921 -2870 0
2922 2921 -2870 0
-2922 2921 2870 0
2922 -2921 2870 0
-2650 -2838 2923 0
-2650 -2921 2923 0
-2838 -2921 2923 0
2650 2838 -2923 0
2650 2921 -2923 0
2838 2921 -2923 0
-2651 -2839 -2924 0
2651 2839 -2924 0
-2651 2839 2924 0
2651 -2839 2924 0
-2924 -2923 -2871 0
2924 2923 -2871 0
-2924 2923 2871 0
2924 -2923 2871 0
-2651 -2839 2925 0
-2651 -2923 2925 0
-2839 -2923 2925 0
2651 2839 -2925 0
2651 2923 -2925 0
2839 2923 -2925 0
-2652 -2840 -2926 0
2652 2840 -2926 0
-2652 2840 2926 0
2652 -2840 2926 0
-2926 -2925 -2872 0
2926 2925 -2872 0
-2926 2925 2872 0
2926 -2925 2872 0
-2652 -2840 2927 0
-2652 -2925 2927 0
-2840 -2925 2927 0
2652 2840 -2927 0
2652 2925 -2927 0
2840 2925 -2927 0
-2653 -2841 -2928 0
2653 2841 -2928 0
-2653 2841 2928 0
2653 -2841 2928 0
-2928 -2927 -2873 0
2928 2927 -2873 0
-2928 2927 2873 0
2928 -2927 2873 0
-2653 -2841 2929 0
-2653 -2927 2929 0
-2841 -2927 2929 0
2653 2841 -2929 0
2653 2927 -2929 0
2841 2927 -2929 0
-2654 -2842 -2930 0
2654 2842 -2930 0
-2654 2842 2930 0
2654 -2842 2930 0
-2930 -2929 -2874 0
2930 2929 -2874 0
-2930 2929 2874 0
2930 -2929 2874 0
-2654 -2842 2931 0
-2654 -2929 2931 0
-2842 -2929 2931 0
2654 2842 -2931 0
2654 2929 -2931 0
2842 2929 -2931 0
-2655 -2843 -2932 0
2655 2843 -2932 0
-2655 2843 2932 0
2655 -2843 2932 0
-2932 -2931 -2875 0
2932 2931 -2875 0
-2932 2931 2875 0
2932 -2931 2875 0
-2655 -2843 2933 0
-2655 -2931 2933 0
-2843 -2931 2933 0
2655 2843 -2933 0
2655 2931 -2933 0
2843 2931 -2933 0
-2656 -2844 -2934 0
2656 2844 -2934 0
-2656 2844 2934 0
2656 -2844 2934 0
-2934 -2933 -2876 0
2934 2933 -2876 0
-2934 2933 2876 0
2934 -2933 2876 0
-2656 -2844 2935 0
-2656 -2933 2935 0
-2844 -2933 2935 0
2656 2844 -2935 0
2656 2933 -2935 0
2844 2933 -2935 0
-2657 -2845 -2936 0
2657 2845 -2936 0
-2657 2845 2936 0
2657 -2845 2936 0
-2936 -2935 -2877 0
2936 2935 -2877 0
-2936 2935 2877 0
2936 -2935 2877 0
-2657 -2845 2937 0
-2657 -2935 2937 0
-2845 -2935 2937 0
2657 2845 -2937 0
2657 2935 -2937 0
2845 2935 -2937 0
-2658 -2846 -2938 0
2658 2846 -2938 0
-2658 2846 2938 0
2658 -2846 2938 0
-2938 -2937 -2878 0
2938 2937 -2878 0
-2938 2937 2878 0
2938 -2937 2878 0
-2658 -2846 2939 0
-2658 -2937 2939 0
-2846 -2937 2939 0
2658 2846 -2939 0
2658 2937 -2939 0
2846 2937 -2939 0
-2659 -2847 -2940 0
2659 2847 -2940 0
-2659 2847 2940 0
2659 -2847 2940 0
-2940 -2939 -2879 0
2940 2939 -2879 0
-2940 2939 2879 0
2940 -2939 2879 0
-2659 -2847 2941 0
-2659 -2939 2941 0
-2847 -2939 2941 0
2659 2847 -2941 0
2659 2939 -2941 0
2847 2939 -2941 0
-2660 -2848 -2942 0
2660 2848 -2942 0
-2660 2848 2942 0
2660 -2848 2942 0
-2942 -2941 -2880 0
2942 2941 -2880 0
-2942 2941 2880 0
2942 -2941 2880 0
-2723 -2849 -2943 0
2723 2849 -2943 0
-2723 2849 2943 0
2723 -2849 2943 0
-2723 -2849 2975 0
2723 -2975 0
2849 -2975 0
-2724 -2850 -2976 0
2724 2850 -2976 0
-2724 2850 2976 0
2724 -2850 2976 0
-2976 -2975 -2944 0
2976 2975 -2944 0
-2976 2975 2944 0
2976 -2975 2944 0
-2724 -2850 2977 0
-2724 -2975 2977 0
-2850 -2975 2977 0
2724 2850 -2977 0
2724 2975 -2977 0
2850 2975 -2977 0
-2725 -2851 -2978 0
2725 2851 -2978 0
-2725 2851 2978 0
2725 -2851 2978 0
-2978 -2977 -2945 0
2978 2977 -2945 0
-2978 2977 2945 0
2978 -2977 2945 0
-2725 -2851 2979 0
-2725 -2977 2979 0
-2851 -2977 2979 0
2725 2851 -2979 0
2725 2977 -2979 0
2851 2977 -2979 0
-2726 -2852 -2980 0
2726 2852 -2980 0
-2726 2852 2980 0
2726 -2852 2980 0
-2980 -2979 -2946 0
2980 2979 -2946 0
-2980 2979 2946 0
2980 -2979 2946 0
-2726 -2852 2981 0
-2726 -2979 2981 0
-2852 -2979 2981 0
2726 2852 -2981 0
2726 2979 -2981 0
2852 2979 -2981 0
-2727 -2853 -2982 0
2727 2853 -2982 0
-2727 2853 2982 0
2727 -2853 2982 0
-2982 -2981 -2947 0
2982 2981 -2947 0
-2982 2981 2947 0
2982 -2981 2947 0
-2727 -2853 2983 0
-2727 -2981 2983 0
-2853 -2981 2983 0
2727 2853 -2983 0
2727 2981 -2983 0
2853 2981 -2983 0
-2728 -2854 -2984 0
2728 2854 -2984 0
-2728 2854 2984 0
2728 -2854 2984 0
-2984 -2983 -2948 0
2984 2983 -2948 0
-2984 2983 2948 0
2984 -2983 2948 0
-2728 -2854 2985 0
-2728 -2983 2985 0
-2854 -2983 2985 0
2728 2854 -2985 0
2728 2983 -2985 0
2854 2983 -2985 0
-2729 -2855 -2986 0
2729 2855 -2986 0
-2729 2855 2986 0
2729 -2855 2986 0
-2986 -2985 -2949 0
2986 2985 -2949 0
-2986 2985 2949 0
2986 -2985 2949 0
-2729 -2855 2987 0
-2729 -2985 2987 0
-2855 -2985 2987 0
2729 2855 -2987 0
2729 2985 -2987 0
2855 2985 -2987 0
-2730 -2856 -2988 0
2730 2856 -2988 0
-2730 2856 2988 0
2730 -2856 2988 0
-2988 -2987 -2950 0
2988 2987 -2950 0
-2988 2987 2950 0
2988 -2987 2950 0
-2730 -2856 2989 0
-2730 -2987 2989 0
-2856 -2987 2989 0
2730 2856 -2989 0
2730 2987 -2989 0
2856 2987 -2989 0
-2731 -2857 -2990 0
2731 2857 -2990 0
-2731 2857 2990 0
2731 -2857 2990 0
-2990 -2989 -2951 0
2990 2989 -2951 0
-2990 2989 2951 0
2990 -2989 2951 0
-2731 -2857 2991 0
-2731 -2989 2991 0
-2857 -2989 2991 0
2731 2857 -2991 0
2731 2989 -2991 0
2857 2989 -2991 0
-2732 -2858 -2992 0
2732 2858 -2992 0
-2732 2858 2992 0
2732 -2858 2992 0
-2992 -2991 -2952 0
2992 2991 -2952 0
-2992 2991 2952 0
2992 -2991 2952 0
-2732 -2858 2993 0
-2732 -2991 2993 0
-2858 -2991 2993 0
2732 2858 -2993 0
2732 2991 -2993 0
2858 2991 -2993 0
-2733 -2859 -2994 0
2733 2859 -2994 0
-2733 2859 2994 0
2733 -2859 2994 0
-2994 -2993 -2953 0
2994 2993 -2953 0
-2994 2993 2953 0
2994 -2993 2953 0
-2733 -2859 2995 0
-2733 -2993 2995 0
-2859 -2993 2995 0
2733 2859 -2995 0
2733 2993 -2995 0
2859 2993 -2995 0
-2734 -2860 -2996 0
2734 2860 -2996 0
-2734 2860 2996 0
2734 -2860 2996 0
-2996 -2995 -2954 0
2996 2995 -2954 0
-2996 2995 2954 0
2996 -2995 2954 0
-2734 -2860 2997 0
-2734 -2995 2997 0
-2860 -2995 2997 0
2734 2860 -2997 0
2734 2995 -2997 0
2860 2995 -2997 0
-2735 -2861 -2998 0
2735 2861 -2998 0
-2735 2861 2998 0
2735 -2861 2998 0
-2998 -2997 -2955 0
2998 2997 -2955 0
-2998 2997 2955 0
2998 -2997 2955 0
-2735 -2861 2999 0
-2735 -2997 2999 0
-2861 -2997 2999 0
2735 2861 -2999 0
2735 2997 -2999 0
2861 2997 -2999 0
-2736 -2862 -3000 0
2736 2862 -3000 0
-2736 2862 3000 0
2736 -2862 3000 0
-3000 -2999 -2956 0
3000 2999 -2956 0
-3000 2999 2956 0
3000 -2999 2956 0
-2736 -2862 3001 0
-2736 -2999 3001 0
-2862 -2999 3001 0
2736 2862 -3001 0
2736 2999 -3001 0
2862 2999 -3001 0
-2737 -2863 -3002 0
2737 2863 -3002 0
-2737 2863 3002 0
2737 -2863 3002 0
-3002 -3001 -2957 0
3002 3001 -2957 0
-3002 3001 2957 0
3002 -3001 2957 0
-2737 -2863 3003 0
-2737 -3001 3003 0
-2863 -3001 3003 0
2737 2863 -3003 0
2737 3001 -3003 0
2863 3001 -3003 0
-2738 -2864 -3004 0
2738 2864 -3004 0
-2738 2864 3004 0
2738 -2864 3004 0
-3004 -3003 -2958 0
3004 3003 -2958 0
-3004 3003 2958 0
3004 -3003 2958 0
-2738 -2864 3005 0
-2738 -3003 3005 0
-2864 -3003 3005 0
2738 2864 -3005 0
2738 3003 -3005 0
2864 3003 -3005 0
-2739 -2865 -3006 0
2739 2865 -3006 0
-2739 2865 3006 0
2739 -2865 3006 0
-3006 -3005 -2959 0
3006 3005 -2959 0
-3006 3005 2959 0
3006 -3005 2959 0
-2739 -2865 3007 0
-2739 -3005 3007 0
-2865 -3005 3007 0
2739 2865 -3007 0
2739 3005 -3007 0
2865 3005 -3007 0
-2740 -2866 -3008 0
2740 2866 -3008 0
-2740 2866 3008 0
2740 -2866 3008 0
-3008 -3007 -2960 0
3008 3007 -2960 0
-3008 3007 2960 0
3008 -3007 2960 0
-2740 -2866 3009 0
-2740 -3007 3009 0
-2866 -3007 3009 0
2740 2866 -3009 0
2740 3007 -3009 0
2866 3007 -3009 0
-2741 -2867 -3010 0
2741 2867 -3010 0
-2741 2867 3010 0
2741 -2867 3010 0
-3010 -3009 -2961 0
3010 3009 -2961 0
-3010 3009 2961 0
3010 -3009 2961 0
-2741 -2867 3011 0
-2741 -3009 3011 0
-2867 -3009 3011 0
2741 2867 -3011 0
2741 3009 -3011 0
2867 3009 -3011 0
-2742 -2868 -3012 0
2742 2868 -3012 0
-2742 2868 3012 0
2742 -2868 3012 0
-3012 -3011 -2962 0
3012 3011 -2962 0
-3012 3011 2962 0
3012 -3011 2962 0
-2742 -2868 3013 0
-2742 -3011 3013 0
-2868 -3011 3013 0
2742 2868 -3013 0
2742 3011 -3013 0
2868 3011 -3013 0
-2743 -2869 -3014 0
2743 2869 -3014 0
-2743 2869 3014 0
2743 -2869 3014 0
-3014 -3013 -2963 0
3014 3013 -2963 0
-3014 3013 2963 0
3014 -3013 2963 0
-2743 -2869 3015 0
-2743 -3013 3015 0
-2869 -3013 3015 0
2743 2869 -3015 0
2743 3013 -3015 0
2869 3013 -3015 0
-2744 -2870 -3016 0
2744 2870 -3016 0
-2744 2870 3016 0
2744 -2870 3016 0
-3016 -3015 -2964 0
3016 3015 -2964 0
-3016 3015 2964 0
3016 -3015 2964 0
-2744 -2870 3017 0
-2744 -3015 3017 0
-2870 -3015 3017 0
2744 2870 -3017 0
2744 3015 -3017 0
2870 3015 -3017 0
-2745 -2871 -3018 0
2745 2871 -3018 0
-2745 2871 3018 0
2745 -2871 3018 0
-3018 -3017 -2965 0
3018 3017 -2965 0
-3018 3017 2965 0
3018 -3017 2965 0
-2745 -2871 3019 0
-2745 -3017 3019 0
-2871 -3017 3019 0
2745 2871 -3019 0
2745 3017 -3019 0
2871 3017 -3019 0
-2746 -2872 -3020 0
2746 2872 -3020 0
-2746 2872 3020 0
2746 -2872 3020 0
-3020 -3019 -2966 0
3020 3019 -2966 0
-3020 3019 2966 0
3020 -3019 2966 0
-2746 -2872 3021 0
-2746 -3019 3021 0
-2872 -3019 3021 0
2746 2872 -3021 0
2746 3019 -3021 0
2872 3019 -3021 0
-2747 -2873 -3022 0
2747 2873 -3022 0
-2747 2873 3022 0
2747 -2873 3022 0
-3022 -3021 -2967 0
3022 3021 -2967 0
-3022 3021 2967 0
3022 -3021 2967 0
-2747 -2873 3023 0
-2747 -3021 3023 0
-2873 -3021 3023 0
2747 2873 -3023 0
2747 3021 -3023 0
2873 3021 -3023 0
-2748 -2874 -3024 0
2748 2874 -3024 0
-2748 2874 3024 0
2748 -2874 3024 0
-3024 -3023 -2968 0
3024 3023 -2968 0
-3024 3023 2968 0
3024 -3023 2968 0
-2748 -2874 3025 0
-2748 -3023 3025 0
-2874 -3023 3025 0
2748 2874 -3025 0
2748 3023 -3025 0
2874 3023 -3025 0
-2749 -2875 -3026 0
2749 2875 -3026 0
-2749 2875 3026 0
2749 -2875 3026 0
-3026 -3025 -2969 0
3026 3025 -2969 0
-3026 3025 2969 0
3026 -3025 2969 0
-2749 -2875 3027 0
-2749 -3025 3027 0
-2875 -3025 3027 0
2749 2875 -3027 0
2749 3025 -3027 0
2875 3025 -3027 0
-2750 -2876 -3028 0
2750 2876 -3028 0
-2750 2876 3028 0
2750 -2876 3028 0
-3028 -3027 -2970 0
3028 3027 -2970 0
-3028 3027 2970 0
3028 -3027 2970 0
-2750 -2876 3029 0
-2750 -3027 3029 0
-2876 -3027 3029 0
2750 2876 -3029 0
2750 3027 -3029 0
2876 3027 -3029 0
-2751 -2877 -3030 0
2751 2877 -3030 0
-2751 2877 3030 0
2751 -2877 3030 0
-3030 -3029 -2971 0
3030 3029 -2971 0
-3030 3029 2971 0
3030 -3029 2971 0
-2751 -2877 3031 0
-2751 -3029 3031 0
-2877 -3029 3031 0
2751 2877 -3031 0
2751 3029 -3031 0
2877 3029 -3031 0
-2752 -2878 -3032 0
2752 2878 -3032 0
-2752 2878 3032 0
2752 -2878 3032 0
-3032 -3031 -2972 0
3032 3031 -2972 0
-3032 3031 2972 0
3032 -3031 2972 0
-2752 -2878 3033 0
-2752 -3031 3033 0
-2878 -3031 3033 0
2752 2878 -3033 0
2752 3031 -3033 0
2878 3031 -3033 0
-2753 -2879 -3034 0
2753 2879 -3034 0
-2753 2879 3034 0
2753 -2879 3034 0
-3034 -3033 -2973 0
3034 3033 -2973 0
-3034 3033 2973 0
3034 -3033 2973 0
-2753 -2879 3035 0
-2753 -3033 3035 0
-2879 -3033 3035 0
2753 2879 -3035 0
2753 3033 -3035 0
2879 3033 -3035 0
-2754 -2880 -3036 0
2754 2880 -3036 0
-2754 2880 3036 0
2754 -2880 3036 0
-3036 -3035 -2974 0
3036 3035 -2974 0
-3036 3035 2974 0
3036 -3035 2974 0
-2441 -2452 -3069 0
2441 2452 -3069 0
-2441 2452 3069 0
2441 -2452 3069 0
-3069 -2461 -3037 0
3069 2461 -3037 0
-3069 2461 3037 0
3069 -2461 3037 0
-2442 -2453 -3070 0
2442 2453 -3070 0
-2442 2453 3070 0
2442 -2453 3070 0
-3070 -2462 -3038 0
3070 2462 -3038 0
-3070 2462 3038 0
3070 -2462 3038 0
-2443 -2454 -3071 0
2443 2454 -3071 0
-2443 2454 3071 0
2443 -2454 3071 0
-3071 -2463 -3039 0
3071 2463 -3039 0
-3071 2463 3039 0
3071 -2463 3039 0
-2444 -2455 -3072 0
2444 2455 -3072 0
-2444 2455 3072 0
2444 -2455 3072 0
-3072 -2464 -3040 0
3072 2464 -3040 0
-3072 2464 3040 0
3072 -2464 3040 0
-2445 -2456 -3073 0
2445 2456 -3073 0
-2445 2456 3073 0
2445 -2456 3073 0
-3073 -2465 -3041 0
3073 2465 -3041 0
-3073 2465 3041 0
3073 -2465 3041 0
-2446 -2457 -3074 0
2446 2457 -3074 0
-2446 2457 3074 0
2446 -2457 3074 0
-3074 -2466 -3042 0
3074 2466 -3042 0
-3074 2466 3042 0
3074 -2466 3042 0
-2447 -2458 -3075 0
2447 2458 -3075 0
-2447 2458 3075 0
2447 -2458 3075 0
-3075 -2467 -3043 0
3075 2467 -3043 0
-3075 2467 3043 0
3075 -2467 3043 0
-2448 -2459 -3076 0
2448 2459 -3076 0
-2448 2459 3076 0
2448 -2459 3076 0
-3076 -2468 -3044 0
3076 2468 -3044 0
-3076 2468 3044 0
3076 -2468 3044 0
-2449 -2460 -3077 0
2449 2460 -3077 0
-2449 2460 3077 0
2449 -2460 3077 0
-3077 -2469 -3045 0
3077 2469 -3045 0
-3077 2469 3045 0
3077 -2469 3045 0
-2450 -2461 -3078 0
2450 2461 -3078 0
-2450 2461 3078 0
2450 -2461 3078 0
-3078 -2470 -3046 0
3078 2470 -3046 0
-3078 2470 3046 0
3078 -2470 3046 0
-2451 -2462 -3079 0
2451 2462 -3079 0
-2451 2462 3079 0
2451 -2462 3079 0
-3079 -2439 -3047 0
3079 2439 -3047 0
-3079 2439 3047 0
3079 -2439 3047 0
-2452 -2463 -3080 0
2452 2463 -3080 0
-2452 2463 3080 0
2452 -2463 3080 0
-3080 -2440 -3048 0
3080 2440 -3048 0
-3080 2440 3048 0
3080 -2440 3048 0
-2453 -2464 -3081 0
2453 2464 -3081 0
-2453 2464 3081 0
2453 -2464 3081 0
-3081 -2441 -3049 0
3081 2441 -3049 0
-3081 2441 3049 0
3081 -2441 3049 0
-2454 -2465 -3082 0
2454 2465 -3082 0
-2454 2465 3082 0
2454 -2465 3082 0
-3082 -2442 -3050 0
3082 2442 -3050 0
-3082 2442 3050 0
3082 -2442 3050 0
-2455 -2466 -3083 0
2455 2466 -3083 0
-2455 2466 3083 0
2455 -2466 3083 0
-3083 -2443 -3051 0
3083 2443 -3051 0
-3083 2443 3051 0
3083 -2443 3051 0
-2456 -2467 -3084 0
2456 2467 -3084 0
-2456 2467 3084 0
2456 -2467 3084 0
-3084 -2444 -3052 0
3084 2444 -3052 0
-3084 2444 3052 0
3084 -2444 3052 0
-2457 -2468 -3085 0
2457 2468 -3085 0
-2457 2468 3085 0
2457 -2468 3085 0
-3085 -2445 -3053 0
3085 2445 -3053 0
-3085 2445 3053 0
3085 -2445 3053 0
-2458 -2469 -3086 0
2458 2469 -3086 0
-2458 2469 3086 0
2458 -2469 3086 0
-3086 -2446 -3054 0
3086 2446 -3054 0
-3086 2446 3054 0
3086 -2446 3054 0
-2459 -2470 -3087 0
2459 2470 -3087 0
-2459 2470 3087 0
2459 -2470 3087 0
-3087 -2447 -3055 0
3087 2447 -3055 0
-3087 2447 3055 0
3087 -2447 3055 0
-2460 -2439 -3088 0
2460 2439 -3088 0
-2460 2439 3088 0
2460 -2439 3088 0
-3088 -2448 -3056 0
3088 2448 -3056 0
-3088 2448 3056 0
3088 -2448 3056 0
-2461 -2440 -3089 0
2461 2440 -3089 0
-2461 2440 3089 0
2461 -2440 3089 0
-3089 -2449 -3057 0
3089 2449 -3057 0
-3089 2449 3057 0
3089 -2449 3057 0
-2462 -2441 -3090 0
2462 2441 -3090 0
-2462 2441 3090 0
2462 -2441 3090 0
-3090 -2450 -3058 0
3090 2450 -3058 0
-3090 2450 3058 0
3090 -2450 3058 0
-2463 -2442 -3091 0
2463 2442 -3091 0
-2463 2442 3091 0
2463 -2442 3091 0
-3091 -2451 -3059 0
3091 2451 -3059 0
-3091 2451 3059 0
3091 -2451 3059 0
-2464 -2443 -3092 0
2464 2443 -3092 0
-2464 2443 3092 0
2464 -2443 3092 0
-3092 -2452 -3060 0
3092 2452 -3060 0
-3092 2452 3060 0
3092 -2452 3060 0
-2465 -2444 -3093 0
2465 2444 -3093 0
-2465 2444 3093 0
2465 -2444 3093 0
-3093 -2453 -3061 0
3093 2453 -3061 0
-3093 2453 3061 0
3093 -2453 3061 0
-2466 -2445 -3094 0
2466 2445 -3094 0
-2466 2445 3094 0
2466 -2445 3094 0
-3094 -2454 -3062 0
3094 2454 -3062 0
-3094 2454 3062 0
3094 -2454 3062 0
-2467 -2446 -3095 0
2467 2446 -3095 0
-2467 2446 3095 0
2467 -2446 3095 0
-3095 -2455 -3063 0
3095 2455 -3063 0
-3095 2455 3063 0
3095 -2455 3063 0
-2468 -2447 -3096 0
2468 2447 -3096 0
-2468 2447 3096 0
2468 -2447 3096 0
-3096 -2456 -3064 0
3096 2456 -3064 0
-3096 2456 3064 0
3096 -2456 3064 0
-2469 -2448 -3097 0
2469 2448 -3097 0
-2469 2448 3097 0
2469 -2448 3097 0
-3097 -2457 -3065 0
3097 2457 -3065 0
-3097 2457 3065 0
3097 -2457 3065 0
-2470 -2449 -3098 0
2470 2449 -3098 0
-2470 2449 3098 0
2470 -2449 3098 0
-3098 -2458 -3066 0
3098 2458 -3066 0
-3098 2458 3066 0
3098 -2458 3066 0
-2439 -2450 -3099 0
2439 2450 -3099 0
-2439 2450 3099 0
2439 -2450 3099 0
-3099 -2459 -3067 0
3099 2459 -3067 0
-3099 2459 3067 0
3099 -2459 3067 0
-2440 -2451 -3100 0
2440 2451 -3100 0
-2440 2451 3100 0
2440 -2451 3100 0
-3100 -2460 -3068 0
3100 2460 -3068 0
-3100 2460 3068 0
3100 -2460 3068 0
-2439 -1557 3101 0
-2439 -513 3101 0
-1557 -513 3101 0
2439 1557 -3101 0
2439 513 -3101 0
1557 513 -3101 0
-2440 -1558 3102 0
-2440 -514 3102 0
-1558 -514 3102 0
2440 1558 -3102 0
2440 514 -3102 0
1558 514 -3102 0
-2441 -1559 3103 0
-2441 -515 3103 0
-1559 -515 3103 0
2441 1559 -3103 0
2441 515 -3103 0
1559 515 -3103 0
-2442 -1560 3104 0
-2442 -516 3104 0
-1560 -516 3104 0
2442 1560 -3104 0
2442 516 -3104 0
1560 516 -3104 0
-2443 -1561 3105 0
-2443 -517 3105 0
-1561 -517 3105 0
2443 1561 -3105 0
2443 517 -3105 0
1561 517 -3105 0
-2444 -1562 3106 0
-2444 -518 3106 0
-1562 -518 3106 0
2444 1562 -3106 0
2444 518 -3106 0
1562 518 -3106 0
-2445 -1563 3107 0
-2445 -519 3107 0
-1563 -519 3107 0
2445 1563 -3107 0
2445 519 -3107 0
1563 519 -3107 0
-2446 -1564 3108 0
-2446 -520 3108 0
-1564 -520 3108 0
2446 1564 -3108 0
2446 520 -3108 0
1564 520 -3108 0
-2447 -1565 3109 0
-2447 -521 3109 0
-1565 -521 3109 0
2447 1565 -3109 0
2447 521 -3109 0
1565 521 -3109 0
-2448 -1566 3110 0
-2448 -522 3110 0
-1566 -522 3110 0
2448 1566 -3110 0
2448 522 -3110 0
1566 522 -3110 0
-2449 -1567 3111 0
-2449 -523 3111 0
-1567 -523 3111 0
2449 1567 -3111 0
2449 523 -3111 0
1567 523 -3111 0
-2450 -1568 3112 0
-2450 -524 3112 0
-1568 -524 3112 0
2450 1568 -3112 0
2450 524 -3112 0
1568 524 -3112 0
-2451 -1569 3113 0
-2451 -525 3113 0
-1569 -525 3113 0
2451 1569 -3113 0
2451 525 -3113 0
1569 525 -3113 0
-2452 -1570 3114 0
-2452 -526 3114 0
-1570 -526 3114 0
2452 1570 -3114 0
2452 526 -3114 0
1570 526 -3114 0
-2453 -1571 3115 0
-2453 -527 3115 0
-1571 -527 3115 0
2453 1571 -3115 0
2453 527 -3115 0
1571 527 -3115 0
-2454 -1572 3116 0
-2454 -528 3116 0
-1572 -528 3116 0
2454 1572 -3116 0
2454 528 -3116 0
1572 528 -3116 0
-2455 -1573 3117 0
-2455 -529 3117 0
-1573 -529 3117 0
2455 1573 -3117 0
2455 529 -3117 0
1573 529 -3117 0
-2456 -1574 3118 0
-2456 -530 3118 0
-1574 -530 3118 0
2456 1574 -3118 0
2456 530 -3118 0
1574 530 -3118 0
-2457 -1575 3119 0
-2457 -531 3119 0
-1575 -531 3119 0
2457 1575 -3119 0
2457 531 -3119 0
1575 531 -3119 0
-2458 -1576 3120 0
-2458 -532 3120 0
-1576 -532 3120 0
2458 1576 -3120 0
2458 532 -3120 0
1576 532 -3120 0
-2459 -1577 3121 0
-2459 -533 3121 0
-1577 -533 3121 0
2459 1577 -3121 0
2459 533 -3121 0
1577 533 -3121 0
-2460 -1578 3122 0
-2460 -534 3122 0
-1578 -534 3122 0
2460 1578 -3122 0
2460 534 -3122 0
1578 534 -3122 0
-2461 -1579 3123 0
-2461 -535 3123 0
-1579 -535 3123 0
2461 1579 -3123 0
2461 535 -3123 0
1579 535 -3123 0
-2462 -1580 3124 0
-2462 -536 3124 0
-1580 -536 3124 0
2462 1580 -3124 0
2462 536 -3124 0
1580 536 -3124 0
-2463 -1581 3125 0
-2463 -537 3125 0
-1581 -537 3125 0
2463 1581 -3125 0
2463 537 -3125 0
1581 537 -3125 0
-2464 -1582 3126 0
-2464 -538 3126 0
-1582 -538 3126 0
2464 1582 -3126 0
2464 538 -3126 0
1582 538 -3126 0
-2465 -1583 3127 0
-2465 -539 3127 0
-1583 -539 3127 0
2465 1583 -3127 0
2465 539 -3127 0
1583 539 -3127 0
-2466 -1584 3128 0
-2466 -540 3128 0
-1584 -540 3128 0
2466 1584 -3128 0
2466 540 -3128 0
1584 540 -3128 0
-2467 -1585 3129 0
-2467 -541 3129 0
-1585 -541 3129 0
2467 1585 -3129 0
2467 541 -3129 0
1585 541 -3129 0
-2468 -1586 3130 0
-2468 -542 3130 0
-1586 -542 3130 0
2468 1586 -3130 0
2468 542 -3130 0
1586 542 -3130 0
-2469 -1587 3131 0
-2469 -543 3131 0
-1587 -543 3131 0
2469 1587 -3131 0
2469 543 -3131 0
1587 543 -3131 0
-2470 -1588 3132 0
-2470 -544 3132 0
-1588 -544 3132 0
2470 1588 -3132 0
2470 544 -3132 0
1588 544 -3132 0
-3037 -3101 -3133 0
3037 3101 -3133 0
-3037 3101 3133 0
3037 -3101 3133 0
-3037 -3101 3165 0
3037 -3165 0
3101 -3165 0
-3038 -3102 -3166 0
3038 3102 -3166 0
-3038 3102 3166 0
3038 -3102 3166 0
-3166 -3165 -3134 0
3166 3165 -3134 0
-3166 3165 3134 0
3166 -3165 3134 0
-3038 -3102 3167 0
-3038 -3165 3167 0
-3102 -3165 3167 0
3038 3102 -3167 0
3038 3165 -3167 0
3102 3165 -3167 0
-3039 -3103 -3168 0
3039 3103 -3168 0
-3039 3103 3168 0
3039 -3103 3168 0
-3168 -3167 -3135 0
3168 3167 -3135 0
-3168 3167 3135 0
3168 -3167 3135 0
-3039 -3103 3169 0
-3039 -3167 3169 0
-3103 -3167 3169 0
3039 3103 -3169 0
3039 3167 -3169 0
3103 3167 -3169 0
-3040 -3104 -3170 0
3040 3104 -3170 0
-3040 3104 3170 0
3040 -3104 3170 0
-3170 -3169 -3136 0
3170 3169 -3136 0
-3170 3169 3136 0
3170 -3169 3136 0
-3040 -3104 3171 0
-3040 -3169 3171 0
-3104 -3169 3171 0
3040 3104 -3171 0
3040 3169 -3171 0
3104 3169 -3171 0
-3041 -3105 -3172 0
3041 3105 -3172 0
-3041 3105 3172 0
3041 -3105 3172 0
-3172 -3171 -3137 0
3172 3171 -3137 0
-3172 3171 3137 0
3172 -3171 3137 0
-3041 -3105 3173 0
-3041 -3171 3173 0
-3105 -3171 3173 0
3041 3105 -3173 0
3041 3171 -3173 0
3105 3171 -3173 0
-3042 -3106 -3174 0
3042 3106 -3174 0
-3042 3106 3174 0
3042 -3106 3174 0
-3174 -3173 -3138 0
3174 3173 -3138 0
-3174 3173 3138 0
3174 -3173 3138 0
-3042 -3106 3175 0
-3042 -3173 3175 0
-3106 -3173 3175 0
3042 3106 -3175 0
3042 3173 -3175 0
3106 3173 -3175 0
-3043 -3107 -3176 0
3043 3107 -3176 0
-3043 3107 3176 0
3043 -3107 3176 0
-3176 -3175 -3139 0
3176 3175 -3139 0
-3176 3175 3139 0
3176 -3175 3139 0
-3043 -3107 3177 0
-3043 -3175 3177 0
-3107 -3175 3177 0
3043 3107 -3177 0
3043 3175 -3177 0
3107 3175 -3177 0
-3044 -3108 -3178 0
3044 3108 -3178 0
-3044 3108 3178 0
3044 -3108 3178 0
-3178 -3177 -3140 0
3178 3177 -3140 0
-3178 3177 3140 0
3178 -3177 3140 0
-3044 -3108 3179 0
-3044 -3177 3179 0
-3108 -3177 3179 0
3044 3108 -3179 0
3044 3177 -3179 0
3108 3177 -3179 0
-3045 -3109 -3180 0
3045 3109 -3180 0
-3045 3109 3180 0
3045 -3109 3180 0
-3180 -3179 -3141 0
3180 3179 -3141 0
-3180 3179 3141 0
3180 -3179 3141 0
-3045 -3109 3181 0
-3045 -3179 3181 0
-3109 -3179 3181 0
3045 3109 -3181 0
3045 3179 -3181 0
3109 3179 -3181 0
-3046 -3110 -3182 0
3046 3110 -3182 0
-3046 3110 3182 0
3046 -3110 3182 0
-3182 -3181 -3142 0
3182 3181 -3142 0
-3182 3181 3142 0
3182 -3181 3142 0
-3046 -3110 3183 0
-3046 -3181 3183 0
-3110 -3181 3183 0
3046 3110 -3183 0
3046 3181 -3183 0
3110 3181 -3183 0
-3047 -3111 -3184 0
3047 3111 -3184 0
-3047 3111 3184 0
3047 -3111 3184 0
-3184 -3183 -3143 0
3184 3183 -3143 0
-3184 3183 3143 0
3184 -3183 3143 0
-3047 -3111 3185 0
-3047 -3183 3185 0
-3111 -3183 3185 0
3047 3111 -3185 0
3047 3183 -3185 0
3111 3183 -3185 0
-3048 -3112 -3186 0
3048 3112 -3186 0
-3048 3112 3186 0
3048 -3112 3186 0
-3186 -3185 -3144 0
3186 3185 -3144 0
-3186 3185 3144 0
3186 -3185 3144 0
-3048 -3112 3187 0
-3048 -3185 3187 0
-3112 -3185 3187 0
3048 3112 -3187 0
3048 3185 -3187 0
3112 3185 -3187 0
-3049 -3113 -3188 0
3049 3113 -3188 0
-3049 3113 3188 0
3049 -3113 3188 0
-3188 -3187 -3145 0
3188 3187 -3145 0
-3188 3187 3145 0
3188 -3187 3145 0
-3049 -3113 3189 0
-3049 -3187 3189 0
-3113 -3187 3189 0
3049 3113 -3189 0
3049 3187 -3189 0
3113 3187 -3189 0
-3050 -3114 -3190 0
3050 3114 -3190 0
-3050 3114 3190 0
3050 -3114 3190 0
-3190 -3189 -3146 0
3190 3189 -3146 0
-3190 3189 3146 0
3190 -3189 3146 0
-3050 -3114 3191 0
-3050 -3189 3191 0
-3114 -3189 3191 0
3050 3114 -3191 0
3050 3189 -3191 0
3114 3189 -3191 0
-3051 -3115 -3192 0
3051 3115 -3192 0
-3051 3115 3192 0
3051 -3115 3192 0
-3192 -3191 -3147 0
3192 3191 -3147 0
-3192 3191 3147 0
3192 -3191 3147 0
-3051 -3115 3193 0
-3051 -3191 3193 0
-3115 -3191 3193 0
3051 3115 -3193 0
3051 3191 -3193 0
3115 3191 -3193 0
-3052 -3116 -3194 0
3052 3116 -3194 0
-3052 3116 3194 0
3052 -3116 3194 0
-3194 -3193 -3148 0
3194 3193 -3148 0
-3194 3193 3148 0
3194 -3193 3148 0
-3052 -3116 3195 0
-3052 -3193 3195 0
-3116 -3193 3195 0
3052 3116 -3195 0
3052 3193 -3195 0
3116 3193 -3195 0
-3053 -3117 -3196 0
3053 3117 -3196 0
-3053 3117 3196 0
3053 -3117 3196 0
-3196 -3195 -3149 0
3196 3195 -3149 0
-3196 3195 3149 0
3196 -3195 3149 0
-3053 -3117 3197 0
-3053 -3195 3197 0
-3117 -3195 3197 0
3053 3117 -3197 0
3053 3195 -3197 0
3117 3195 -3197 0
-3054 -3118 -3198 0
3054 3118 -3198 0
-3054 3118 3198 0
3054 -3118 3198 0
-3198 -3197 -3150 0
3198 3197 -3150 0
-3198 3197 3150 0
3198 -3197 3150 0
-3054 -3118 3199 0
-3054 -3197 3199 0
-3118 -3197 3199 0
3054 3118 -3199 0
3054 3197 -3199 0
3118 3197 -3199 0
-3055 -3119 -3200 0
3055 3119 -3200 0
-3055 3119 3200 0
3055 -3119 3200 0
-3200 -3199 -3151 0
3200 3199 -3151 0
-3200 3199 3151 0
3200 -3199 3151 0
-3055 -3119 3201 0
-3055 -3199 3201 0
-3119 -3199 3201 0
3055 3119 -3201 0
3055 3199 -3201 0
3119 3199 -3201 0
-3056 -3120 -3202 0
3056 3120 -3202 0
-3056 3120 3202 0
3056 -3120 3202 0
-3202 -3201 -3152 0
3202 3201 -3152 0
-3202 3201 3152 0
3202 -3201 3152 0
-3056 -3120 3203 0
-3056 -3201 3203 0
-3120 -3201 3203 0
3056 3120 -3203 0
3056 3201 -3203 0
3120 3201 -3203 0
-3057 -3121 -3204 0
3057 3121 -3204 0
-3057 3121 3204 0
3057 -3121 3204 0
-3204 -3203 -3153 0
3204 3203 -3153 0
-3204 3203 3153 0
3204 -3203 3153 0
-3057 -3121 3205 0
-3057 -3203 3205 0
-3121 -3203 3205 0
3057 3121 -3205 0
3057 3203 -3205 0
3121 3203 -3205 0
-3058 -3122 -3206 0
3058 3122 -3206 0
-3058 3122 3206 0
3058 -3122 3206 0
-3206 -3205 -3154 0
3206 3205 -3154 0
-3206 3205 3154 0
3206 -3205 3154 0
-3058 -3122 3207 0
-3058 -3205 3207 0
-3122 -3205 3207 0
3058 3122 -3207 0
3058 3205 -3207 0
3122 3205 -3207 0
-3059 -3123 -3208 0
3059 3123 -3208 0
-3059 3123 3208 0
3059 -3123 3208 0
-3208 -3207 -3155 0
3208 3207 -3155 0
-3208 3207 3155 0
3208 -3207 3155 0
-3059 -3123 3209 0
-3059 -3207 3209 0
-3123 -3207 3209 0
3059 3123 -3209 0
3059 3207 -3209 0
3123 3207 -3209 0
-3060 -3124 -3210 0
3060 3124 -3210 0
-3060 3124 3210 0
3060 -3124 3210 0
-3210 -3209 -3156 0
3210 3209 -3156 0
-3210 3209 3156 0
3210 -3209 3156 0
-3060 -3124 3211 0
-3060 -3209 3211 0
-3124 -3209 3211 0
3060 3124 -3211 0
3060 3209 -3211 0
3124 3209 -3211 0
-3061 -3125 -3212 0
3061 3125 -3212 0
-3061 3125 3212 0
3061 -3125 3212 0
-3212 -3211 -3157 0
3212 3211 -3157 0
-3212 3211 3157 0
3212 -3211 3157 0
-3061 -3125 3213 0
-3061 -3211 3213 0
-3125 -3211 3213 0
3061 3125 -3213 0
3061 3211 -3213 0
3125 3211 -3213 0
-3062 -3126 -3214 0
3062 3126 -3214 0
-3062 3126 3214 0
3062 -3126 3214 0
-3214 -3213 -3158 0
3214 3213 -3158 0
-3214 3213 3158 0
3214 -3213 3158 0
-3062 -3126 3215 0
-3062 -3213 3215 0
-3126 -3213 3215 0
3062 3126 -3215 0
3062 3213 -3215 0
3126 3213 -3215 0
-3063 -3127 -3216 0
3063 3127 -3216 0
-3063 3127 3216 0
3063 -3127 3216 0
-3216 -3215 -3159 0
3216 3215 -3159 0
-3216 3215 3159 0
3216 -3215 3159 0
-3063 -3127 3217 0
-3063 -3215 3217 0
-3127 -3215 3217 0
3063 3127 -3217 0
3063 3215 -3217 0
3127 3215 -3217 0
-3064 -3128 -3218 0
3064 3128 -3218 0
-3064 3128 3218 0
3064 -3128 3218 0
-3218 -3217 -3160 0
3218 3217 -3160 0
-3218 3217 3160 0
3218 -3217 3160 0
-3064 -3128 3219 0
-3064 -3217 3219 0
-3128 -3217 3219 0
3064 3128 -3219 0
3064 3217 -3219 0
3128 3217 -3219 0
-3065 -3129 -3220 0
3065 3129 -3220 0
-3065 3129 3220 0
3065 -3129 3220 0
-3220 -3219 -3161 0
3220 3219 -3161 0
-3220 3219 3161 0
3220 -3219 3161 0
-3065 -3129 3221 0
-3065 -3219 3221 0
-3129 -3219 3221 0
3065 3129 -3221 0
3065 3219 -3221 0
3129 3219 -3221 0
-3066 -3130 -3222 0
3066 3130 -3222 0
-3066 3130 3222 0
3066 -3130 3222 0
-3222 -3221 -3162 0
3222 3221 -3162 0
-3222 3221 3162 0
3222 -3221 3162 0
-3066 -3130 3223 0
-3066 -3221 3223 0
-3130 -3221 3223 0
3066 3130 -3223 0
3066 3221 -3223 0
3130 3221 -3223 0
-3067 -3131 -3224 0
3067 3131 -3224 0
-3067 3131 3224 0
3067 -3131 3224 0
-3224 -3223 -3163 0
3224 3223 -3163 0
-3224 3223 3163 0
3224 -3223 3163 0
-3067 -3131 3225 0
-3067 -3223 3225 0
-3131 -3223 3225 0
3067 3131 -3225 0
3067 3223 -3225 0
3131 3223 -3225 0
-3068 -3132 -3226 0
3068 3132 -3226 0
-3068 3132 3226 0
3068 -3132 3226 0
-3226 -3225 -3164 0
3226 3225 -3164 0
-3226 3225 3164 0
3226 -3225 3164 0
-545 -2943 -3227 0
545 2943 -3227 0
-545 2943 3227 0
545 -2943 3227 0
-545 -2943 3259 0
545 -3259 0
2943 -3259 0
-546 -2944 -3260 0
546 2944 -3260 0
-546 2944 3260 0
546 -2944 3260 0
-3260 -3259 -3228 0
3260 3259 -3228 0
-3260 3259 3228 0
3260 -3259 3228 0
-546 -2944 3261 0
-546 -3259 3261 0
-2944 -3259 3261 0
546 2944 -3261 0
546 3259 -3261 0
2944 3259 -3261 0
-547 -2945 -3262 0
547 2945 -3262 0
-547 2945 3262 0
547 -2945 3262 0
-3262 -3261 -3229 0
3262 3261 -3229 0
-3262 3261 3229 0
3262 -3261 3229 0
-547 -2945 3263 0
-547 -3261 3263 0
-2945 -3261 3263 0
547 2945 -3263 0
547 3261 -3263 0
2945 3261 -3263 0
-548 -2946 -3264 0
548 2946 -3264 0
-548 2946 3264 0
548 -2946 3264 0
-3264 -3263 -3230 0
3264 3263 -3230 0
-3264 3263 3230 0
3264 -3263 3230 0
-548 -2946 3265 0
-548 -3263 3265 0
-2946 -3263 3265 0
548 2946 -3265 0
548 3263 -3265 0
2946 3263 -3265 0
-549 -2947 -3266 0
549 2947 -3266 0
-549 2947 3266 0
549 -2947 3266 0
-3266 -3265 -3231 0
3266 3265 -3231 0
-3266 3265 3231 0
3266 -3265 3231 0
-549 -2947 3267 0
-549 -3265 3267 0
-2947 -3265 3267 0
549 2947 -3267 0
549 3265 -3267 0
2947 3265 -3267 0
-550 -2948 -3268 0
550 2948 -3268 0
-550 2948 3268 0
550 -2948 3268 0
-3268 -3267 -3232 0
3268 3267 -3232 0
-3268 3267 3232 0
3268 -3267 3232 0
-550 -2948 3269 0
-550 -3267 3269 0
-2948 -3267 3269 0
550 2948 -3269 0
550 3267 -3269 0
2948 3267 -3269 0
-551 -2949 -3270 0
551 2949 -3270 0
-551 2949 3270 0
551 -2949 3270 0
-3270 -3269 -3233 0
3270 3269 -3233 0
-3270 3269 3233 0
3270 -3269 3233 0
-551 -2949 3271 0
-551 -3269 3271 0
-2949 -3269 3271 0
551 2949 -3271 0
551 3269 -3271 0
2949 3269 -3271 0
-552 -2950 -3272 0
552 2950 -3272 0
-552 2950 3272 0
552 -2950 3272 0
-3272 -3271 -3234 0
3272 3271 -3234 0
-3272 3271 3234 0
3272 -3271 3234 0
-552 -2950 3273 0
-552 -3271 3273 0
-2950 -3271 3273 0
552 2950 -3273 0
552 3271 -3273 0
2950 3271 -3273 0
-553 -2951 -3274 0
553 2951 -3274 0
-553 2951 3274 0
553 -2951 3274 0
-3274 -3273 -3235 0
3274 3273 -3235 0
-3274 3273 3235 0
3274 -3273 3235 0
-553 -2951 3275 0
-553 -3273 3275 0
-2951 -3273 3275 0
553 2951 -3275 0
553 3273 -3275 0
2951 3273 -3275 0
-554 -2952 -3276 0
554 2952 -3276 0
-554 2952 3276 0
554 -2952 3276 0
-3276 -3275 -3236 0
3276 3275 -3236 0
-3276 3275 3236 0
3276 -3275 3236 0
-554 -2952 3277 0
-554 -3275 3277 0
-2952 -3275 3277 0
554 2952 -3277 0
554 3275 -3277 0
2952 3275 -3277 0
-555 -2953 -3278 0
555 2953 -3278 0
-555 2953 3278 0
555 -2953 3278 0
-3278 -3277 -3237 0
3278 3277 -3237 0
-3278 3277 3237 0
3278 -3277 3237 0
-555 -2953 3279 0
-555 -3277 3279 0
-2953 -3277 3279 0
555 2953 -3279 0
555 3277 -3279 0
2953 3277 -3279 0
-556 -2954 -3280 0
556 2954 -3280 0
-556 2954 3280 0
556 -2954 3280 0
-3280 -3279 -3238 0
3280 3279 -3238 0
-3280 3279 3238 0
3280 -3279 3238 0
-556 -2954 3281 0
-556 -3279 3281 0
-2954 -3279 3281 0
556 2954 -3281 0
556 3279 -3281 0
2954 3279 -3281 0
-557 -2955 -3282 0
557 2955 -3282 0
-557 2955 3282 0
557 -2955 3282 0
-3282 -3281 -3239 0
3282 3281 -3239 0
-3282 3281 3239 0
3282 -3281 3239 0
-557 -2955 3283 0
-557 -3281 3283 0
-2955 -3281 3283 0
557 2955 -3283 0
557 3281 -3283 0
2955 3281 -3283 0
-558 -2956 -3284 0
558 2956 -3284 0
-558 2956 3284 0
558 -2956 3284 0
-3284 -3283 -3240 0
3284 3283 -3240 0
-3284 3283 3240 0
3284 -3283 3240 0
-558 -2956 3285 0
-558 -3283 3285 0
-2956 -3283 3285 0
558 2956 -3285 0
558 3283 -3285 0
2956 3283 -3285 0
-559 -2957 -3286 0
559 2957 -3286 0
-559 2957 3286 0
559 -2957 3286 0
-3286 -3285 -3241 0
3286 3285 -3241 0
-3286 3285 3241 0
3286 -3285 3241 0
-559 -2957 3287 0
-559 -3285 3287 0
-2957 -3285 3287 0
559 2957 -3287 0
559 3285 -3287 0
2957 3285 -3287 0
-560 -2958 -3288 0
560 2958 -3288 0
-560 2958 3288 0
560 -2958 3288 0
-3288 -3287 -3242 0
3288 3287 -3242 0
-3288 3287 3242 0
3288 -3287 3242 0
-560 -2958 3289 0
-560 -3287 3289 0
-2958 -3287 3289 0
560 2958 -3289 0
560 3287 -3289 0
2958 3287 -3289 0
-561 -2959 -3290 0
561 2959 -3290 0
-561 2959 3290 0
561 -2959 3290 0
-3290 -3289 -3243 0
3290 3289 -3243 0
-3290 3289 3243 0
3290 -3289 3243 0
-561 -2959 3291 0
-561 -3289 3291 0
-2959 -3289 3291 0
561 2959 -3291 0
561 3289 -3291 0
2959 3289 -3291 0
-562 -2960 -3292 0
562 2960 -3292 0
-562 2960 3292 0
562 -2960 3292 0
-3292 -3291 -3244 0
3292 3291 -3244 0
-3292 3291 3244 0
3292 -3291 3244 0
-562 -2960 3293 0
-562 -3291 3293 0
-2960 -3291 3293 0
562 2960 -3293 0
562 3291 -3293 0
2960 3291 -3293 0
-563 -2961 -3294 0
563 2961 -3294 0
-563 2961 3294 0
563 -2961 3294 0
-3294 -3293 -3245 0
3294 3293 -3245 0
-3294 3293 3245 0
3294 -3293 3245 0
-563 -2961 3295 0
-563 -3293 3295 0
-2961 -3293 3295 0
563 2961 -3295 0
563 3293 -3295 0
2961 3293 -3295 0
-564 -2962 -3296 0
564 2962 -3296 0
-564 2962 3296 0
564 -2962 3296 0
-3296 -3295 -3246 0
3296 3295 -3246 0
-3296 3295 3246 0
3296 -3295 3246 0
-564 -2962 3297 0
-564 -3295 3297 0
-2962 -3295 3297 0
564 2962 -3297 0
564 3295 -3297 0
2962 3295 -3297 0
-565 -2963 -3298 0
565 2963 -3298 0
-565 2963 3298 0
565 -2963 3298 0
-3298 -3297 -3247 0
3298 3297 -3247 0
-3298 3297 3247 0
3298 -3297 3247 0
-565 -2963 3299 0
-565 -3297 3299 0
-2963 -3297 3299 0
565 2963 -3299 0
565 3297 -3299 0
2963 3297 -3299 0
-566 -2964 -3300 0
566 2964 -3300 0
-566 2964 3300 0
566 -2964 3300 0
-3300 -3299 -3248 0
3300 3299 -3248 0
-3300 3299 3248 0
3300 -3299 3248 0
-566 -2964 3301 0
-566 -3299 3301 0
-2964 -3299 3301 0
566 2964 -3301 0
566 3299 -3301 0
2964 3299 -3301 0
-567 -2965 -3302 0
567 2965 -3302 0
-567 2965 3302 0
567 -2965 3302 0
-3302 -3301 -3249 0
3302 3301 -3249 0
-3302 3301 3249 0
3302 -3301 3249 0
-567 -2965 3303 0
-567 -3301 3303 0
-2965 -3301 3303 0
567 2965 -3303 0
567 3301 -3303 0
2965 3301 -3303 0
-568 -2966 -3304 0
568 2966 -3304 0
-568 2966 3304 0
568 -2966 3304 0
-3304 -3303 -3250 0
3304 3303 -3250 0
-3304 3303 3250 0
3304 -3303 3250 0
-568 -2966 3305 0
-568 -3303 3305 0
-2966 -3303 3305 0
568 2966 -3305 0
568 3303 -3305 0
2966 3303 -3305 0
-569 -2967 -3306 0
569 2967 -3306 0
-569 2967 3306 0
569 -2967 3306 0
-3306 -3305 -3251 0
3306 3305 -3251 0
-3306 3305 3251 0
3306 -3305 3251 0
-569 -2967 3307 0
-569 -3305 3307 0
-2967 -3305 3307 0
569 2967 -3307 0
569 3305 -3307 0
2967 3305 -3307 0
-570 -2968 -3308 0
570 2968 -3308 0
-570 2968 3308 0
570 -2968 3308 0
-3308 -3307 -3252 0
3308 3307 -3252 0
-3308 3307 3252 0
3308 -3307 3252 0
-570 -2968 3309 0
-570 -3307 3309 0
-2968 -3307 3309 0
570 2968 -3309 0
570 3307 -3309 0
2968 3307 -3309 0
-571 -2969 -3310 0
571 2969 -3310 0
-571 2969 3310 0
571 -2969 3310 0
-3310 -3309 -3253 0
3310 3309 -3253 0
-3310 3309 3253 0
3310 -3309 3253 0
-571 -2969 3311 0
-571 -3309 3311 0
-2969 -3309 3311 0
571 2969 -3311 0
571 3309 -3311 0
2969 3309 -3311 0
-572 -2970 -3312 0
572 2970 -3312 0
-572 2970 3312 0
572 -2970 3312 0
-3312 -3311 -3254 0
3312 3311 -3254 0
-3312 3311 3254 0
3312 -3311 3254 0
-572 -2970 3313 0
-572 -3311 3313 0
-2970 -3311 3313 0
572 2970 -3313 0
572 3311 -3313 0
2970 3311 -3313 0
-573 -2971 -3314 0
573 2971 -3314 0
-573 2971 3314 0
573 -2971 3314 0
-3314 -3313 -3255 0
3314 3313 -3255 0
-3314 3313 3255 0
3314 -3313 3255 0
-573 -2971 3315 0
-573 -3313 3315 0
-2971 -3313 3315 0
573 2971 -3315 0
573 3313 -3315 0
2971 3313 -3315 0
-574 -2972 -3316 0
574 2972 -3316 0
-574 2972 3316 0
574 -2972 3316 0
-3316 -3315 -3256 0
3316 3315 -3256 0
-3316 3315 3256 0
3316 -3315 3256 0
-574 -2972 3317 0
-574 -3315 3317 0
-2972 -3315 3317 0
574 2972 -3317 0
574 3315 -3317 0
2972 3315 -3317 0
-575 -2973 -3318 0
575 2973 -3318 0
-575 2973 3318 0
575 -2973 3318 0
-3318 -3317 -3257 0
3318 3317 -3257 0
-3318 3317 3257 0
3318 -3317 3257 0
-575 -2973 3319 0
-575 -3317 3319 0
-2973 -3317 3319 0
575 2973 -3319 0
575 3317 -3319 0
2973 3317 -3319 0
-576 -2974 -3320 0
576 2974 -3320 0
-576 2974 3320 0
576 -2974 3320 0
-3320 -3319 -3258 0
3320 3319 -3258 0
-3320 3319 3258 0
3320 -3319 3258 0
-2943 -3133 -3321 0
2943 3133 -3321 0
-2943 3133 3321 0
2943 -3133 3321 0
-2943 -3133 3353 0
2943 -3353 0
3133 -3353 0
-2944 -3134 -3354 0
2944 3134 -3354 0
-2944 3134 3354 0
2944 -3134 3354 0
-3354 -3353 -3322 0
3354 3353 -3322 0
-3354 3353 3322 0
3354 -3353 3322 0
-2944 -3134 3355 0
-2944 -3353 3355 0
-3134 -3353 3355 0
2944 3134 -3355 0
2944 3353 -3355 0
3134 3353 -3355 0
-2945 -3135 -3356 0
2945 3135 -3356 0
-2945 3135 3356 0
2945 -3135 3356 0
-3356 -3355 -3323 0
3356 3355 -3323 0
-3356 3355 3323 0
3356 -3355 3323 0
-2945 -3135 3357 0
-2945 -3355 3357 0
-3135 -3355 3357 0
2945 3135 -3357 0
2945 3355 -3357 0
3135 3355 -3357 0
-2946 -3136 -3358 0
2946 3136 -3358 0
-2946 3136 3358 0
2946 -3136 3358 0
-3358 -3357 -3324 0
3358 3357 -3324 0
-3358 3357 3324 0
3358 -3357 3324 0
-2946 -3136 3359 0
-2946 -3357 3359 0
-3136 -3357 3359 0
2946 3136 -3359 0
2946 3357 -3359 0
3136 3357 -3359 0
-2947 -3137 -3360 0
2947 3137 -3360 0
-2947 3137 3360 0
2947 -3137 3360 0
-3360 -3359 -3325 0
3360 3359 -3325 0
-3360 3359 3325 0
3360 -3359 3325 0
-2947 -3137 3361 0
-2947 -3359 3361 0
-3137 -3359 3361 0
2947 3137 -3361 0
2947 3359 -3361 0
3137 3359 -3361 0
-2948 -3138 -3362 0
2948 3138 -3362 0
-2948 3138 3362 0
2948 -3138 3362 0
-3362 -3361 -3326 0
3362 3361 -3326 0
-3362 3361 3326 0
3362 -3361 3326 0
-2948 -3138 3363 0
-2948 -3361 3363 0
-3138 -3361 3363 0
2948 3138 -3363 0
2948 3361 -3363 0
3138 3361 -3363 0
-2949 -3139 -3364 0
2949 3139 -3364 0
-2949 3139 3364 0
2949 -3139 3364 0
-3364 -3363 -3327 0
3364 3363 -3327 0
-3364 3363 3327 0
3364 -3363 3327 0
-2949 -3139 3365 0
-2949 -3363 3365 0
-3139 -3363 3365 0
2949 3139 -3365 0
2949 3363 -3365 0
3139 3363 -3365 0
-2950 -3140 -3366 0
2950 3140 -3366 0
-2950 3140 3366 0
2950 -3140 3366 0
-3366 -3365 -3328 0
3366 3365 -3328 0
-3366 3365 3328 0
3366 -3365 3328 0
-2950 -3140 3367 0
-2950 -3365 3367 0
-3140 -3365 3367 0
2950 3140 -3367 0
2950 3365 -3367 0
3140 3365 -3367 0
-2951 -3141 -3368 0
2951 3141 -3368 0
-2951 3141 3368 0
2951 -3141 3368 0
-3368 -3367 -3329 0
3368 3367 -3329 0
-3368 3367 3329 0
3368 -3367 3329 0
-2951 -3141 3369 0
-2951 -3367 3369 0
-3141 -3367 3369 0
2951 3141 -3369 0
2951 3367 -3369 0
3141 3367 -3369 0
-2952 -3142 -3370 0
2952 3142 -3370 0
-2952 3142 3370 0
2952 -3142 3370 0
-3370 -3369 -3330 0
3370 3369 -3330 0
-3370 3369 3330 0
3370 -3369 3330 0
-2952 -3142 3371 0
-2952 -3369 3371 0
-3142 -3369 3371 0
2952 3142 -3371 0
2952 3369 -3371 0
3142 3369 -3371 0
-2953 -3143 -3372 0
2953 3143 -3372 0
-2953 3143 3372 0
2953 -3143 3372 0
-3372 -3371 -3331 0
3372 3371 -3331 0
-3372 3371 3331 0
3372 -3371 3331 0
-2953 -3143 3373 0
-2953 -3371 3373 0
-3143 -3371 3373 0
2953 3143 -3373 0
2953 3371 -3373 0
3143 3371 -3373 0
-2954 -3144 -3374 0
2954 3144 -3374 0
-2954 3144 3374 0
2954 -3144 3374 0
-3374 -3373 -3332 0
3374 3373 -3332 0
-3374 3373 3332 0
3374 -3373 3332 0
-2954 -3144 3375 0
-2954 -3373 3375 0
-3144 -3373 3375 0
2954 3144 -3375 0
2954 3373 -3375 0
3144 3373 -3375 0
-2955 -3145 -3376 0
2955 3145 -3376 0
-2955 3145 3376 0
2955 -3145 3376 0
-3376 -3375 -3333 0
3376 3375 -3333 0
-3376 3375 3333 0
3376 -3375 3333 0
-2955 -3145 3377 0
-2955 -3375 3377 0
-3145 -3375 3377 0
2955 3145 -3377 0
2955 3375 -3377 0
3145 3375 -3377 0
-2956 -3146 -3378 0
2956 3146 -3378 0
-2956 3146 3378 0
2956 -3146 3378 0
-3378 -3377 -3334 0
3378 3377 -3334 0
-3378 3377 3334 0
3378 -3377 3334 0
-2956 -3146 3379 0
-2956 -3377 3379 0
-3146 -3377 3379 0
2956 3146 -3379 0
2956 3377 -3379 0
3146 3377 -3379 0
-2957 -3147 -3380 0
2957 3147 -3380 0
-2957 3147 3380 0
2957 -3147 3380 0
-3380 -3379 -3335 0
3380 3379 -3335 0
-3380 3379 3335 0
3380 -3379 3335 0
-2957 -3147 3381 0
-2957 -3379 3381 0
-3147 -3379 3381 0
2957 3147 -3381 0
2957 3379 -3381 0
3147 3379 -3381 0
-2958 -3148 -3382 0
2958 3148 -3382 0
-2958 3148 3382 0
2958 -3148 3382 0
-3382 -3381 -3336 0
3382 3381 -3336 0
-3382 3381 3336 0
3382 -3381 3336 0
-2958 -3148 3383 0
-2958 -3381 3383 0
-3148 -3381 3383 0
2958 3148 -3383 0
2958 3381 -3383 0
3148 3381 -3383 0
-2959 -3149 -3384 0
2959 3149 -3384 0
-2959 3149 3384 0
2959 -3149 3384 0
-3384 -3383 -3337 0
3384 3383 -3337 0
-3384 3383 3337 0
3384 -3383 3337 0
-2959 -3149 3385 0
-2959 -3383 3385 0
-3149 -3383 3385 0
2959 3149 -3385 0
2959 3383 -3385 0
3149 3383 -3385 0
-2960 -3150 -3386 0
2960 3150 -3386 0
-2960 3150 3386 0
2960 -3150 3386 0
-3386 -3385 -3338 0
3386 3385 -3338 0
-3386 3385 3338 0
3386 -3385 3338 0
-2960 -3150 3387 0
-2960 -3385 3387 0
-3150 -3385 3387 0
2960 3150 -3387 0
2960 3385 -3387 0
3150 3385 -3387 0
-2961 -3151 -3388 0
2961 3151 -3388 0
-2961 3151 3388 0
2961 -3151 3388 0
-3388 -3387 -3339 0
3388 3387 -3339 0
-3388 3387 3339 0
3388 -3387 3339 0
-2961 -3151 3389 0
-2961 -3387 3389 0
-3151 -3387 3389 0
2961 3151 -3389 0
2961 3387 -3389 0
3151 3387 -3389 0
-2962 -3152 -3390 0
2962 3152 -3390 0
-2962 3152 3390 0
2962 -3152 3390 0
-3390 -3389 -3340 0
3390 3389 -3340 0
-3390 3389 3340 0
3390 -3389 3340 0
-2962 -3152 3391 0
-2962 -3389 3391 0
-3152 -3389 3391 0
2962 3152 -3391 0
2962 3389 -3391 0
3152 3389 -3391 0
-2963 -3153 -3392 0
2963 3153 -3392 0
-2963 3153 3392 0
2963 -3153 3392 0
-3392 -3391 -3341 0
3392 3391 -3341 0
-3392 3391 3341 0
3392 -3391 3341 0
-2963 -3153 3393 0
-2963 -3391 3393 0
-3153 -3391 3393 0
2963 3153 -3393 0
2963 3391 -3393 0
3153 3391 -3393 0
-2964 -3154 -3394 0
2964 3154 -3394 0
-2964 3154 3394 0
2964 -3154 3394 0
-3394 -3393 -3342 0
3394 3393 -3342 0
-3394 3393 3342 0
3394 -3393 3342 0
-2964 -3154 3395 0
-2964 -3393 3395 0
-3154 -3393 3395 0
2964 3154 -3395 0
2964 3393 -3395 0
3154 3393 -3395 0
-2965 -3155 -3396 0
2965 3155 -3396 0
-2965 3155 3396 0
2965 -3155 3396 0
-3396 -3395 -3343 0
3396 3395 -3343 0
-3396 3395 3343 0
3396 -3395 3343 0
-2965 -3155 3397 0
-2965 -3395 3397 0
-3155 -3395 3397 0
2965 3155 -3397 0
2965 3395 -3397 0
3155 3395 -3397 0
-2966 -3156 -3398 0
2966 3156 -3398 0
-2966 3156 3398 0
2966 -3156 3398 0
-3398 -3397 -3344 0
3398 3397 -3344 0
-3398 3397 3344 0
3398 -3397 3344 0
-2966 -3156 3399 0
-2966 -3397 3399 0
-3156 -3397 3399 0
2966 3156 -3399 0
2966 3397 -3399 0
3156 3397 -3399 0
-2967 -3157 -3400 0
2967 3157 -3400 0
-2967 3157 3400 0
2967 -3157 3400 0
-3400 -3399 -3345 0
3400 3399 -3345 0
-3400 3399 3345 0
3400 -3399 3345 0
-2967 -3157 3401 0
-2967 -3399 3401 0
-3157 -3399 3401 0
2967 3157 -3401 0
2967 3399 -3401 0
3157 3399 -3401 0
-2968 -3158 -3402 0
2968 3158 -3402 0
-2968 3158 3402 0
2968 -3158 3402 0
-3402 -3401 -3346 0
3402 3401 -3346 0
-3402 3401 3346 0
3402 -3401 3346 0
-2968 -3158 3403 0
-2968 -3401 3403 0
-3158 -3401 3403 0
2968 3158 -3403 0
2968 3401 -3403 0
3158 3401 -3403 0
-2969 -3159 -3404 0
2969 3159 -3404 0
-2969 3159 3404 0
2969 -3159 3404 0
-3404 -3403 -3347 0
3404 3403 -3347 0
-3404 3403 3347 0
3404 -3403 3347 0
-2969 -3159 3405 0
-2969 -3403 3405 0
-3159 -3403 3405 0
2969 3159 -3405 0
2969 3403 -3405 0
3159 3403 -3405 0
-2970 -3160 -3406 0
2970 3160 -3406 0
-2970 3160 3406 0
2970 -3160 3406 0
-3406 -3405 -3348 0
3406 3405 -3348 0
-3406 3405 3348 0
3406 -3405 3348 0
-2970 -3160 3407 0
-2970 -3405 3407 0
-3160 -3405 3407 0
2970 3160 -3407 0
2970 3405 -3407 0
3160 3405 -3407 0
-2971 -3161 -3408 0
2971 3161 -3408 0
-2971 3161 3408 0
2971 -3161 3408 0
-3408 -3407 -3349 0
3408 3407 -3349 0
-3408 3407 3349 0
3408 -3407 3349 0
-2971 -3161 3409 0
-2971 -3407 3409 0
-3161 -3407 3409 0
2971 3161 -3409 0
2971 3407 -3409 0
3161 3407 -3409 0
-2972 -3162 -3410 0
2972 3162 -3410 0
-2972 3162 3410 0
2972 -3162 3410 0
-3410 -3409 -3350 0
3410 3409 -3350 0
-3410 3409 3350 0
3410 -3409 3350 0
-2972 -3162 3411 0
-2972 -3409 3411 0
-3162 -3409 3411 0
2972 3162 -3411 0
2972 3409 -3411 0
3162 3409 -3411 0
-2973 -3163 -3412 0
2973 3163 -3412 0
-2973 3163 3412 0
2973 -3163 3412 0
-3412 -3411 -3351 0
3412 3411 -3351 0
-3412 3411 3351 0
3412 -3411 3351 0
-2973 -3163 3413 0
-2973 -3411 3413 0
-3163 -3411 3413 0
2973 3163 -3413 0
2973 3411 -3413 0
3163 3411 -3413 0
-2974 -3164 -3414 0
2974 3164 -3414 0
-2974 3164 3414 0
2974 -3164 3414 0
-3414 -3413 -3352 0
3414 3413 -3352 0
-3414 3413 3352 0
3414 -3413 3352 0
-3233 -3238 -3447 0
3233 3238 -3447 0
-3233 3238 3447 0
3233 -3238 3447 0
-3447 -3252 -3415 0
3447 3252 -3415 0
-3447 3252 3415 0
3447 -3252 3415 0
-3234 -3239 -3448 0
3234 3239 -3448 0
-3234 3239 3448 0
3234 -3239 3448 0
-3448 -3253 -3416 0
3448 3253 -3416 0
-3448 3253 3416 0
3448 -3253 3416 0
-3235 -3240 -3449 0
3235 3240 -3449 0
-3235 3240 3449 0
3235 -3240 3449 0
-3449 -3254 -3417 0
3449 3254 -3417 0
-3449 3254 3417 0
3449 -3254 3417 0
-3236 -3241 -3450 0
3236 3241 -3450 0
-3236 3241 3450 0
3236 -3241 3450 0
-3450 -3255 -3418 0
3450 3255 -3418 0
-3450 3255 3418 0
3450 -3255 3418 0
-3237 -3242 -3451 0
3237 3242 -3451 0
-3237 3242 3451 0
3237 -3242 3451 0
-3451 -3256 -3419 0
3451 3256 -3419 0
-3451 3256 3419 0
3451 -3256 3419 0
-3238 -3243 -3452 0
3238 3243 -3452 0
-3238 3243 3452 0
3238 -3243 3452 0
-3452 -3257 -3420 0
3452 3257 -3420 0
-3452 3257 3420 0
3452 -3257 3420 0
-3239 -3244 -3453 0
3239 3244 -3453 0
-3239 3244 3453 0
3239 -3244 3453 0
-3453 -3258 -3421 0
3453 3258 -3421 0
-3453 3258 3421 0
3453 -3258 3421 0
-3240 -3245 -3454 0
3240 3245 -3454 0
-3240 3245 3454 0
3240 -3245 3454 0
-3454 -3227 -3422 0
3454 3227 -3422 0
-3454 3227 3422 0
3454 -3227 3422 0
-3241 -3246 -3455 0
3241 3246 -3455 0
-3241 3246 3455 0
3241 -3246 3455 0
-3455 -3228 -3423 0
3455 3228 -3423 0
-3455 3228 3423 0
3455 -3228 3423 0
-3242 -3247 -3456 0
3242 3247 -3456 0
-3242 3247 3456 0
3242 -3247 3456 0
-3456 -3229 -3424 0
3456 3229 -3424 0
-3456 3229 3424 0
3456 -3229 3424 0
-3243 -3248 -3457 0
3243 3248 -3457 0
-3243 3248 3457 0
3243 -3248 3457 0
-3457 -3230 -3425 0
3457 3230 -3425 0
-3457 3230 3425 0
3457 -3230 3425 0
-3244 -3249 -3458 0
3244 3249 -3458 0
-3244 3249 3458 0
3244 -3249 3458 0
-3458 -3231 -3426 0
3458 3231 -3426 0
-3458 3231 3426 0
3458 -3231 3426 0
-3245 -3250 -3459 0
3245 3250 -3459 0
-3245 3250 3459 0
3245 -3250 3459 0
-3459 -3232 -3427 0
3459 3232 -3427 0
-3459 3232 3427 0
3459 -3232 3427 0
-3246 -3251 -3460 0
3246 3251 -3460 0
-3246 3251 3460 0
3246 -3251 3460 0
-3460 -3233 -3428 0
3460 3233 -3428 0
-3460 3233 3428 0
3460 -3233 3428 0
-3247 -3252 -3461 0
3247 3252 -3461 0
-3247 3252 3461 0
3247 -3252 3461 0
-3461 -3234 -3429 0
3461 3234 -3429 0
-3461 3234 3429 0
3461 -3234 3429 0
-3248 -3253 -3462 0
3248 3253 -3462 0
-3248 3253 3462 0
3248 -3253 3462 0
-3462 -3235 -3430 0
3462 3235 -3430 0
-3462 3235 3430 0
3462 -3235 3430 0
-3249 -3254 -3463 0
3249 3254 -3463 0
-3249 3254 3463 0
3249 -3254 3463 0
-3463 -3236 -3431 0
3463 3236 -3431 0
-3463 3236 3431 0
3463 -3236 3431 0
-3250 -3255 -3464 0
3250 3255 -3464 0
-3250 3255 3464 0
3250 -3255 3464 0
-3464 -3237 -3432 0
3464 3237 -3432 0
-3464 3237 3432 0
3464 -3237 3432 0
-3251 -3256 -3465 0
3251 3256 -3465 0
-3251 3256 3465 0
3251 -3256 3465 0
-3465 -3238 -3433 0
3465 3238 -3433 0
-3465 3238 3433 0
3465 -3238 3433 0
-3252 -3257 -3466 0
3252 3257 -3466 0
-3252 3257 3466 0
3252 -3257 3466 0
-3466 -3239 -3434 0
3466 3239 -3434 0
-3466 3239 3434 0
3466 -3239 3434 0
-3253 -3258 -3467 0
3253 3258 -3467 0
-3253 3258 3467 0
3253 -3258 3467 0
-3467 -3240 -3435 0
3467 3240 -3435 0
-3467 3240 3435 0
3467 -3240 3435 0
-3254 -3227 -3468 0
3254 3227 -3468 0
-3254 3227 3468 0
3254 -3227 3468 0
-3468 -3241 -3436 0
3468 3241 -3436 0
-3468 3241 3436 0
3468 -3241 3436 0
-3255 -3228 -3469 0
3255 3228 -3469 0
-3255 3228 3469 0
3255 -3228 3469 0
-3469 -3242 -3437 0
3469 3242 -3437 0
-3469 3242 3437 0
3469 -3242 3437 0
-3256 -3229 -3470 0
3256 3229 -3470 0
-3256 3229 3470 0
3256 -3229 3470 0
-3470 -3243 -3438 0
3470 3243 -3438 0
-3470 3243 3438 0
3470 -3243 3438 0
-3257 -3230 -3471 0
3257 3230 -3471 0
-3257 3230 3471 0
3257 -3230 3471 0
-3471 -3244 -3439 0
3471 3244 -3439 0
-3471 3244 3439 0
3471 -3244 3439 0
-3258 -3231 -3472 0
3258 3231 -3472 0
-3258 3231 3472 0
3258 -3231 3472 0
-3472 -3245 -3440 0
3472 3245 -3440 0
-3472 3245 3440 0
3472 -3245 3440 0
-3227 -3232 -3473 0
3227 3232 -3473 0
-3227 3232 3473 0
3227 -3232 3473 0
-3473 -3246 -3441 0
3473 3246 -3441 0
-3473 3246 3441 0
3473 -3246 3441 0
-3228 -3233 -3474 0
3228 3233 -3474 0
-3228 3233 3474 0
3228 -3233 3474 0
-3474 -3247 -3442 0
3474 3247 -3442 0
-3474 3247 3442 0
3474 -3247 3442 0
-3229 -3234 -3475 0
3229 3234 -3475 0
-3229 3234 3475 0
3229 -3234 3475 0
-3475 -3248 -3443 0
3475 3248 -3443 0
-3475 3248 3443 0
3475 -3248 3443 0
-3230 -3235 -3476 0
3230 3235 -3476 0
-3230 3235 3476 0
3230 -3235 3476 0
-3476 -3249 -3444 0
3476 3249 -3444 0
-3476 3249 3444 0
3476 -3249 3444 0
-3231 -3236 -3477 0
3231 3236 -3477 0
-3231 3236 3477 0
3231 -3236 3477 0
-3477 -3250 -3445 0
3477 3250 -3445 0
-3477 3250 3445 0
3477 -3250 3445 0
-3232 -3237 -3478 0
3232 3237 -3478 0
-3232 3237 3478 0
3232 -3237 3478 0
-3478 -3251 -3446 0
3478 3251 -3446 0
-3478 3251 3446 0
3478 -3251 3446 0
-3227 -2345 3479 0
-3227 2345 -3479 0
3227 -1463 3479 0
3227 1463 -3479 0
-3228 -2346 3480 0
-3228 2346 -3480 0
3228 -1464 3480 0
3228 1464 -3480 0
-3229 -2347 3481 0
-3229 2347 -3481 0
3229 -1465 3481 0
3229 1465 -3481 0
-3230 -2348 3482 0
-3230 2348 -3482 0
3230 -1466 3482 0
3230 1466 -3482 0
-3231 -2349 3483 0
-3231 2349 -3483 0
3231 -1467 3483 0
3231 1467 -3483 0
-3232 -2350 3484 0
-3232 2350 -3484 0
3232 -1468 3484 0
3232 1468 -3484 0
-3233 -2351 3485 0
-3233 2351 -3485 0
3233 -1469 3485 0
3233 1469 -3485 0
-3234 -2352 3486 0
-3234 2352 -3486 0
3234 -1470 3486 0
3234 1470 -3486 0
-3235 -2353 3487 0
-3235 2353 -3487 0
3235 -1471 3487 0
3235 1471 -3487 0
-3236 -2354 3488 0
-3236 2354 -3488 0
3236 -1472 3488 0
3236 1472 -3488 0
-3237 -2355 3489 0
-3237 2355 -3489 0
3237 -1473 3489 0
3237 1473 -3489 0
-3238 -2356 3490 0
-3238 2356 -3490 0
3238 -1474 3490 0
3238 1474 -3490 0
-3239 -2357 3491 0
-3239 2357 -3491 0
3239 -1475 3491 0
3239 1475 -3491 0
-3240 -2358 3492 0
-3240 2358 -3492 0
3240 -1476 3492 0
3240 1476 -3492 0
-3241 -2359 3493 0
-3241 2359 -3493 0
3241 -1477 3493 0
3241 1477 -3493 0
-3242 -2360 3494 0
-3242 2360 -3494 0
3242 -1478 3494 0
3242 1478 -3494 0
-3243 -2361 3495 0
-3243 2361 -3495 0
3243 -1479 3495 0
3243 1479 -3495 0
-3244 -2362 3496 0
-3244 2362 -3496 0
3244 -1480 3496 0
3244 1480 -3496 0
-3245 -2363 3497 0
-3245 2363 -3497 0
3245 -1481 3497 0
3245 1481 -3497 0
-3246 -2364 3498 0
-3246 2364 -3498 0
3246 -1482 3498 0
3246 1482 -3498 0
-3247 -2365 3499 0
-3247 2365 -3499 0
3247 -1483 3499 0
3247 1483 -3499 0
-3248 -2366 3500 0
-3248 2366 -3500 0
3248 -1484 3500 0
3248 1484 -3500 0
-3249 -2367 3501 0
-3249 2367 -3501 0
3249 -1485 3501 0
3249 1485 -3501 0
-3250 -2368 3502 0
-3250 2368 -3502 0
3250 -1486 3502 0
3250 1486 -3502 0
-3251 -2369 3503 0
-3251 2369 -3503 0
3251 -1487 3503 0
3251 1487 -3503 0
-3252 -2370 3504 0
-3252 2370 -3504 0
3252 -1488 3504 0
3252 1488 -3504 0
-3253 -2371 3505 0
-3253 2371 -3505 0
3253 -1489 3505 0
3253 1489 -3505 0
-3254 -2372 3506 0
-3254 2372 -3506 0
3254 -1490 3506 0
3254 1490 -3506 0
-3255 -2373 3507 0
-3255 2373 -3507 0
3255 -1491 3507 0
3255 1491 -3507 0
-3256 -2374 3508 0
-3256 2374 -3508 0
3256 -1492 3508 0
3256 1492 -3508 0
-3257 -2375 3509 0
-3257 2375 -3509 0
3257 -1493 3509 0
3257 1493 -3509 0
-3258 -2376 3510 0
-3258 2376 -3510 0
3258 -1494 3510 0
3258 1494 -3510 0
-641 -3415 -3511 0
641 3415 -3511 0
-641 3415 3511 0
641 -3415 3511 0
-641 -3415 3543 0
641 -3543 0
3415 -3543 0
-642 -3416 -3544 0
642 3416 -3544 0
-642 3416 3544 0
642 -3416 3544 0
-3544 -3543 -3512 0
3544 3543 -3512 0
-3544 3543 3512 0
3544 -3543 3512 0
-642 -3416 3545 0
-642 -3543 3545 0
-3416 -3543 3545 0
642 3416 -3545 0
642 3543 -3545 0
3416 3543 -3545 0
-643 -3417 -3546 0
643 3417 -3546 0
-643 3417 3546 0
643 -3417 3546 0
-3546 -3545 -3513 0
3546 3545 -3513 0
-3546 3545 3513 0
3546 -3545 3513 0
-643 -3417 3547 0
-643 -3545 3547 0
-3417 -3545 3547 0
643 3417 -3547 0
643 3545 -3547 0
3417 3545 -3547 0
-644 -3418 -3548 0
644 3418 -3548 0
-644 3418 3548 0
644 -3418 3548 0
-3548 -3547 -3514 0
3548 3547 -3514 0
-3548 3547 3514 0
3548 -3547 3514 0
-644 -3418 3549 0
-644 -3547 3549 0
-3418 -3547 3549 0
644 3418 -3549 0
644 3547 -3549 0
3418 3547 -3549 0
-645 -3419 -3550 0
645 3419 -3550 0
-645 3419 3550 0
645 -3419 3550 0
-3550 -3549 -3515 0
3550 3549 -3515 0
-3550 3549 3515 0
3550 -3549 3515 0
-645 -3419 3551 0
-645 -3549 3551 0
-3419 -3549 3551 0
645 3419 -3551 0
645 3549 -3551 0
3419 3549 -3551 0
-646 -3420 -3552 0
646 3420 -3552 0
-646 3420 3552 0
646 -3420 3552 0
-3552 -3551 -3516 0
3552 3551 -3516 0
-3552 3551 3516 0
3552 -3551 3516 0
-646 -3420 3553 0
-646 -3551 3553 0
-3420 -3551 3553 0
646 3420 -3553 0
646 3551 -3553 0
3420 3551 -3553 0
-647 -3421 -3554 0
647 3421 -3554 0
-647 3421 3554 0
647 -3421 3554 0
-3554 -3553 -3517 0
3554 3553 -3517 0
-3554 3553 3517 0
3554 -3553 3517 0
-647 -3421 3555 0
-647 -3553 3555 0
-3421 -3553 3555 0
647 3421 -3555 0
647 3553 -3555 0
3421 3553 -3555 0
-648 -3422 -3556 0
648 3422 -3556 0
-648 3422 3556 0
648 -3422 3556 0
-3556 -3555 -3518 0
3556 3555 -3518 0
-3556 3555 3518 0
3556 -3555 3518 0
-648 -3422 3557 0
-648 -3555 3557 0
-3422 -3555 3557 0
648 3422 -3557 0
648 3555 -3557 0
3422 3555 -3557 0
-649 -3423 -3558 0
649 3423 -3558 0
-649 3423 3558 0
649 -3423 3558 0
-3558 -3557 -3519 0
3558 3557 -3519 0
-3558 3557 3519 0
3558 -3557 3519 0
-649 -3423 3559 0
-649 -3557 3559 0
-3423 -3557 3559 0
649 3423 -3559 0
649 3557 -3559 0
3423 3557 -3559 0
-650 -3424 -3560 0
650 3424 -3560 0
-650 3424 3560 0
650 -3424 3560 0
-3560 -3559 -3520 0
3560 3559 -3520 0
-3560 3559 3520 0
3560 -3559 3520 0
-650 -3424 3561 0
-650 -3559 3561 0
-3424 -3559 3561 0
650 3424 -3561 0
650 3559 -3561 0
3424 3559 -3561 0
-651 -3425 -3562 0
651 3425 -3562 0
-651 3425 3562 0
651 -3425 3562 0
-3562 -3561 -3521 0
3562 3561 -3521 0
-3562 3561 3521 0
3562 -3561 3521 0
-651 -3425 3563 0
-651 -3561 3563 0
-3425 -3561 3563 0
651 3425 -3563 0
651 3561 -3563 0
3425 3561 -3563 0
-652 -3426 -3564 0
652 3426 -3564 0
-652 3426 3564 0
652 -3426 3564 0
-3564 -3563 -3522 0
3564 3563 -3522 0
-3564 3563 3522 0
3564 -3563 3522 0
-652 -3426 3565 0
-652 -3563 3565 0
-3426 -3563 3565 0
652 3426 -3565 0
652 3563 -3565 0
3426 3563 -3565 0
-653 -3427 -3566 0
653 3427 -3566 0
-653 3427 3566 0
653 -3427 3566 0
-3566 -3565 -3523 0
3566 3565 -3523 0
-3566 3565 3523 0
3566 -3565 3523 0
-653 -3427 3567 0
-653 -3565 3567 0
-3427 -3565 3567 0
653 3427 -3567 0
653 3565 -3567 0
3427 3565 -3567 0
-654 -3428 -3568 0
654 3428 -3568 0
-654 3428 3568 0
654 -3428 3568 0
-3568 -3567 -3524 0
3568 3567 -3524 0
-3568 3567 3524 0
3568 -3567 3524 0
-654 -3428 3569 0
-654 -3567 3569 0
-3428 -3567 3569 0
654 3428 -3569 0
654 3567 -3569 0
3428 3567 -3569 0
-655 -3429 -3570 0
655 3429 -3570 0
-655 3429 3570 0
655 -3429 3570 0
-3570 -3569 -3525 0
3570 3569 -3525 0
-3570 3569 3525 0
3570 -3569 3525 0
-655 -3429 3571 0
-655 -3569 3571 0
-3429 -3569 3571 0
655 3429 -3571 0
655 3569 -3571 0
3429 3569 -3571 0
-656 -3430 -3572 0
656 3430 -3572 0
-656 3430 3572 0
656 -3430 3572 0
-3572 -3571 -3526 0
3572 3571 -3526 0
-3572 3571 3526 0
3572 -3571 3526 0
-656 -3430 3573 0
-656 -3571 3573 0
-3430 -3571 3573 0
656 3430 -3573 0
656 3571 -3573 0
3430 3571 -3573 0
-657 -3431 -3574 0
657 3431 -3574 0
-657 3431 3574 0
657 -3431 3574 0
-3574 -3573 -3527 0
3574 3573 -3527 0
-3574 3573 3527 0
3574 -3573 3527 0
-657 -3431 3575 0
-657 -3573 3575 0
-3431 -3573 3575 0
657 3431 -3575 0
657 3573 -3575 0
3431 3573 -3575 0
-658 -3432 -3576 0
658 3432 -3576 0
-658 3432 3576 0
658 -3432 3576 0
-3576 -3575 -3528 0
3576 3575 -3528 0
-3576 3575 3528 0
3576 -3575 3528 0
-658 -3432 3577 0
-658 -3575 3577 0
-3432 -3575 3577 0
658 3432 -3577 0
658 3575 -3577 0
3432 3575 -3577 0
-659 -3433 -3578 0
659 3433 -3578 0
-659 3433 3578 0
659 -3433 3578 0
-3578 -3577 -3529 0
3578 3577 -3529 0
-3578 3577 3529 0
3578 -3577 3529 0
-659 -3433 3579 0
-659 -3577 3579 0
-3433 -3577 3579 0
659 3433 -3579 0
659 3577 -3579 0
3433 3577 -3579 0
-660 -3434 -3580 0
660 3434 -3580 0
-660 3434 3580 0
660 -3434 3580 0
-3580 -3579 -3530 0
3580 3579 -3530 0
-3580 3579 3530 0
3580 -3579 3530 0
-660 -3434 3581 0
-660 -3579 3581 0
-3434 -3579 3581 0
660 3434 -3581 0
660 3579 -3581 0
3434 3579 -3581 0
-661 -3435 -3582 0
661 3435 -3582 0
-661 3435 3582 0
661 -3435 3582 0
-3582 -3581 -3531 0
3582 3581 -3531 0
-3582 3581 3531 0
3582 -3581 3531 0
-661 -3435 3583 0
-661 -3581 3583 0
-3435 -3581 3583 0
661 3435 -3583 0
661 3581 -3583 0
3435 3581 -3583 0
-662 -3436 -3584 0
662 3436 -3584 0
-662 3436 3584 0
662 -3436 3584 0
-3584 -3583 -3532 0
3584 3583 -3532 0
-3584 3583 3532 0
3584 -3583 3532 0
-662 -3436 3585 0
-662 -3583 3585 0
-3436 -3583 3585 0
662 3436 -3585 0
662 3583 -3585 0
3436 3583 -3585 0
-663 -3437 -3586 0
663 3437 -3586 0
-663 3437 3586 0
663 -3437 3586 0
-3586 -3585 -3533 0
3586 3585 -3533 0
-3586 3585 3533 0
3586 -3585 3533 0
-663 -3437 3587 0
-663 -3585 3587 0
-3437 -3585 3587 0
663 3437 -3587 0
663 3585 -3587 0
3437 3585 -3587 0
-664 -3438 -3588 0
664 3438 -3588 0
-664 3438 3588 0
664 -3438 3588 0
-3588 -3587 -3534 0
3588 3587 -3534 0
-3588 3587 3534 0
3588 -3587 3534 0
-664 -3438 3589 0
-664 -3587 3589 0
-3438 -3587 3589 0
664 3438 -3589 0
664 3587 -3589 0
3438 3587 -3589 0
-665 -3439 -3590 0
665 3439 -3590 0
-665 3439 3590 0
665 -3439 3590 0
-3590 -3589 -3535 0
3590 3589 -3535 0
-3590 3589 3535 0
3590 -3589 3535 0
-665 -3439 3591 0
-665 -3589 3591 0
-3439 -3589 3591 0
665 3439 -3591 0
665 3589 -3591 0
3439 3589 -3591 0
-666 -3440 -3592 0
666 3440 -3592 0
-666 3440 3592 0
666 -3440 3592 0
-3592 -3591 -3536 0
3592 3591 -3536 0
-3592 3591 3536 0
3592 -3591 3536 0
-666 -3440 3593 0
-666 -3591 3593 0
-3440 -3591 3593 0
666 3440 -3593 0
666 3591 -3593 0
3440 3591 -3593 0
-667 -3441 -3594 0
667 3441 -3594 0
-667 3441 3594 0
667 -3441 3594 0
-3594 -3593 -3537 0
3594 3593 -3537 0
-3594 3593 3537 0
3594 -3593 3537 0
-667 -3441 3595 0
-667 -3593 3595 0
-3441 -3593 3595 0
667 3441 -3595 0
667 3593 -3595 0
3441 3593 -3595 0
-668 -3442 -3596 0
668 3442 -3596 0
-668 3442 3596 0
668 -3442 3596 0
-3596 -3595 -3538 0
3596 3595 -3538 0
-3596 3595 3538 0
3596 -3595 3538 0
-668 -3442 3597 0
-668 -3595 3597 0
-3442 -3595 3597 0
668 3442 -3597 0
668 3595 -3597 0
3442 3595 -3597 0
-669 -3443 -3598 0
669 3443 -3598 0
-669 3443 3598 0
669 -3443 3598 0
-3598 -3597 -3539 0
3598 3597 -3539 0
-3598 3597 3539 0
3598 -3597 3539 0
-669 -3443 3599 0
-669 -3597 3599 0
-3443 -3597 3599 0
669 3443 -3599 0
669 3597 -3599 0
3443 3597 -3599 0
-670 -3444 -3600 0
670 3444 -3600 0
-670 3444 3600 0
670 -3444 3600 0
-3600 -3599 -3540 0
3600 3599 -3540 0
-3600 3599 3540 0
3600 -3599 3540 0
-670 -3444 3601 0
-670 -3599 3601 0
-3444 -3599 3601 0
670 3444 -3601 0
670 3599 -3601 0
3444 3599 -3601 0
-671 -3445 -3602 0
671 3445 -3602 0
-671 3445 3602 0
671 -3445 3602 0
-3602 -3601 -3541 0
3602 3601 -3541 0
-3602 3601 3541 0
3602 -3601 3541 0
-671 -3445 3603 0
-671 -3601 3603 0
-3445 -3601 3603 0
671 3445 -3603 0
671 3601 -3603 0
3445 3601 -3603 0
-672 -3446 -3604 0
672 3446 -3604 0
-672 3446 3604 0
672 -3446 3604 0
-3604 -3603 -3542 0
3604 3603 -3542 0
-3604 3603 3542 0
3604 -3603 3542 0
-3479 -97 -3605 0
3479 97 -3605 0
-3479 97 3605 0
3479 -97 3605 0
-3479 -97 3637 0
3479 -3637 0
97 -3637 0
-3480 -98 -3638 0
3480 98 -3638 0
-3480 98 3638 0
3480 -98 3638 0
-3638 -3637 -3606 0
3638 3637 -3606 0
-3638 3637 3606 0
3638 -3637 3606 0
-3480 -98 3639 0
-3480 -3637 3639 0
-98 -3637 3639 0
3480 98 -3639 0
3480 3637 -3639 0
98 3637 -3639 0
-3481 -99 -3640 0
3481 99 -3640 0
-3481 99 3640 0
3481 -99 3640 0
-3640 -3639 -3607 0
3640 3639 -3607 0
-3640 3639 3607 0
3640 -3639 3607 0
-3481 -99 3641 0
-3481 -3639 3641 0
-99 -3639 3641 0
3481 99 -3641 0
3481 3639 -3641 0
99 3639 -3641 0
-3482 -100 -3642 0
3482 100 -3642 0
-3482 100 3642 0
3482 -100 3642 0
-3642 -3641 -3608 0
3642 3641 -3608 0
-3642 3641 3608 0
3642 -3641 3608 0
-3482 -100 3643 0
-3482 -3641 3643 0
-100 -3641 3643 0
3482 100 -3643 0
3482 3641 -3643 0
100 3641 -3643 0
-3483 -101 -3644 0
3483 101 -3644 0
-3483 101 3644 0
3483 -101 3644 0
-3644 -3643 -3609 0
3644 3643 -3609 0
-3644 3643 3609 0
3644 -3643 3609 0
-3483 -101 3645 0
-3483 -3643 3645 0
-101 -3643 3645 0
3483 101 -3645 0
3483 3643 -3645 0
101 3643 -3645 0
-3484 -102 -3646 0
3484 102 -3646 0
-3484 102 3646 0
3484 -102 3646 0
-3646 -3645 -3610 0
3646 3645 -3610 0
-3646 3645 3610 0
3646 -3645 3610 0
-3484 -102 3647 0
-3484 -3645 3647 0
-102 -3645 3647 0
3484 102 -3647 0
3484 3645 -3647 0
102 3645 -3647 0
-3485 -103 -3648 0
3485 103 -3648 0
-3485 103 3648 0
3485 -103 3648 0
-3648 -3647 -3611 0
3648 3647 -3611 0
-3648 3647 3611 0
3648 -3647 3611 0
-3485 -103 3649 0
-3485 -3647 3649 0
-103 -3647 3649 0
3485 103 -3649 0
3485 3647 -3649 0
103 3647 -3649 0
-3486 -104 -3650 0
3486 104 -3650 0
-3486 104 3650 0
3486 -104 3650 0
-3650 -3649 -3612 0
3650 3649 -3612 0
-3650 3649 3612 0
3650 -3649 3612 0
-3486 -104 3651 0
-3486 -3649 3651 0
-104 -3649 3651 0
3486 104 -3651 0
3486 3649 -3651 0
104 3649 -3651 0
-3487 -105 -3652 0
3487 105 -3652 0
-3487 105 3652 0
3487 -105 3652 0
-3652 -3651 -3613 0
3652 3651 -3613 0
-3652 3651 3613 0
3652 -3651 3613 0
-3487 -105 3653 0
-3487 -3651 3653 0
-105 -3651 3653 0
3487 105 -3653 0
3487 3651 -3653 0
105 3651 -3653 0
-3488 -106 -3654 0
3488 106 -3654 0
-3488 106 3654 0
3488 -106 3654 0
-3654 -3653 -3614 0
3654 3653 -3614 0
-3654 3653 3614 0
3654 -3653 3614 0
-3488 -106 3655 0
-3488 -3653 3655 0
-106 -3653 3655 0
3488 106 -3655 0
3488 3653 -3655 0
106 3653 -3655 0
-3489 -107 -3656 0
3489 107 -3656 0
-3489 107 3656 0
3489 -107 3656 0
-3656 -3655 -3615 0
3656 3655 -3615 0
-3656 3655 3615 0
3656 -3655 3615 0
-3489 -107 3657 0
-3489 -3655 3657 0
-107 -3655 3657 0
3489 107 -3657 0
3489 3655 -3657 0
107 3655 -3657 0
-3490 -108 -3658 0
3490 108 -3658 0
-3490 108 3658 0
3490 -108 3658 0
-3658 -3657 -3616 0
3658 3657 -3616 0
-3658 3657 3616 0
3658 -3657 3616 0
-3490 -108 3659 0
-3490 -3657 3659 0
-108 -3657 3659 0
3490 108 -3659 0
3490 3657 -3659 0
108 3657 -3659 0
-3491 -109 -3660 0
3491 109 -3660 0
-3491 109 3660 0
3491 -109 3660 0
-3660 -3659 -3617 0
3660 3659 -3617 0
-3660 3659 3617 0
3660 -3659 3617 0
-3491 -109 3661 0
-3491 -3659 3661 0
-109 -3659 3661 0
3491 109 -3661 0
3491 3659 -3661 0
109 3659 -3661 0
-3492 -110 -3662 0
3492 110 -3662 0
-3492 110 3662 0
3492 -110 3662 0
-3662 -3661 -3618 0
3662 3661 -3618 0
-3662 3661 3618 0
3662 -3661 3618 0
-3492 -110 3663 0
-3492 -3661 3663 0
-110 -3661 3663 0
3492 110 -3663 0
3492 3661 -3663 0
110 3661 -3663 0
-3493 -111 -3664 0
3493 111 -3664 0
-3493 111 3664 0
3493 -111 3664 0
-3664 -3663 -3619 0
3664 3663 -3619 0
-3664 3663 3619 0
3664 -3663 3619 0
-3493 -111 3665 0
-3493 -3663 3665 0
-111 -3663 3665 0
3493 111 -3665 0
3493 3663 -3665 0
111 3663 -3665 0
-3494 -112 -3666 0
3494 112 -3666 0
-3494 112 3666 0
3494 -112 3666 0
-3666 -3665 -3620 0
3666 3665 -3620 0
-3666 3665 3620 0
3666 -3665 3620 0
-3494 -112 3667 0
-3494 -3665 3667 0
-112 -3665 3667 0
3494 112 -3667 0
3494 3665 -3667 0
112 3665 -3667 0
-3495 -113 -3668 0
3495 113 -3668 0
-3495 113 3668 0
3495 -113 3668 0
-3668 -3667 -3621 0
3668 3667 -3621 0
-3668 3667 3621 0
3668 -3667 3621 0
-3495 -113 3669 0
-3495 -3667 3669 0
-113 -3667 3669 0
3495 113 -3669 0
3495 3667 -3669 0
113 3667 -3669 0
-3496 -114 -3670 0
3496 114 -3670 0
-3496 114 3670 0
3496 -114 3670 0
-3670 -3669 -3622 0
3670 3669 -3622 0
-3670 3669 3622 0
3670 -3669 3622 0
-3496 -114 3671 0
-3496 -3669 3671 0
-114 -3669 3671 0
3496 114 -3671 0
3496 3669 -3671 0
114 3669 -3671 0
-3497 -115 -3672 0
3497 115 -3672 0
-3497 115 3672 0
3497 -115 3672 0
-3672 -3671 -3623 0
3672 3671 -3623 0
-3672 3671 3623 0
3672 -3671 3623 0
-3497 -115 3673 0
-3497 -3671 3673 0
-115 -3671 3673 0
3497 115 -3673 0
3497 3671 -3673 0
115 3671 -3673 0
-3498 -116 -3674 0
3498 116 -3674 0
-3498 116 3674 0
3498 -116 3674 0
-3674 -3673 -3624 0
3674 3673 -3624 0
-3674 3673 3624 0
3674 -3673 3624 0
-3498 -116 3675 0
-3498 -3673 3675 0
-116 -3673 3675 0
3498 116 -3675 0
3498 3673 -3675 0
116 3673 -3675 0
-3499 -117 -3676 0
3499 117 -3676 0
-3499 117 3676 0
3499 -117 3676 0
-3676 -3675 -3625 0
3676 3675 -3625 0
-3676 3675 3625 0
3676 -3675 3625 0
-3499 -117 3677 0
-3499 -3675 3677 0
-117 -3675 3677 0
3499 117 -3677 0
3499 3675 -3677 0
117 3675 -3677 0
-3500 -118 -3678 0
3500 118 -3678 0
-3500 118 3678 0
3500 -118 3678 0
-3678 -3677 -3626 0
3678 3677 -3626 0
-3678 3677 3626 0
3678 -3677 3626 0
-3500 -118 3679 0
-3500 -3677 3679 0
-118 -3677 3679 0
3500 118 -3679 0
3500 3677 -3679 0
118 3677 -3679 0
-3501 -119 -3680 0
3501 119 -3680 0
-3501 119 3680 0
3501 -119 3680 0
-3680 -3679 -3627 0
3680 3679 -3627 0
-3680 3679 3627 0
3680 -3679 3627 0
-3501 -119 3681 0
-3501 -3679 3681 0
-119 -3679 3681 0
3501 119 -3681 0
3501 3679 -3681 0
119 3679 -3681 0
-3502 -120 -3682 0
3502 120 -3682 0
-3502 120 3682 0
3502 -120 3682 0
-3682 -3681 -3628 0
3682 3681 -3628 0
-3682 3681 3628 0
3682 -3681 3628 0
-3502 -120 3683 0
-3502 -3681 3683 0
-120 -3681 3683 0
3502 120 -3683 0
3502 3681 -3683 0
120 3681 -3683 0
-3503 -121 -3684 0
3503 121 -3684 0
-3503 121 3684 0
3503 -121 3684 0
-3684 -3683 -3629 0
3684 3683 -3629 0
-3684 3683 3629 0
3684 -3683 3629 0
-3503 -121 3685 0
-3503 -3683 3685 0
-121 -3683 3685 0
3503 121 -3685 0
3503 3683 -3685 0
121 3683 -3685 0
-3504 -122 -3686 0
3504 122 -3686 0
-3504 122 3686 0
3504 -122 3686 0
-3686 -3685 -3630 0
3686 3685 -3630 0
-3686 3685 3630 0
3686 -3685 3630 0
-3504 -122 3687 0
-3504 -3685 3687 0
-122 -3685 3687 0
3504 122 -3687 0
3504 3685 -3687 0
122 3685 -3687 0
-3505 -123 -3688 0
3505 123 -3688 0
-3505 123 3688 0
3505 -123 3688 0
-3688 -3687 -3631 0
3688 3687 -3631 0
-3688 3687 3631 0
3688 -3687 3631 0
-3505 -123 3689 0
-3505 -3687 3689 0
-123 -3687 3689 0
3505 123 -3689 0
3505 3687 -3689 0
123 3687 -3689 0
-3506 -124 -3690 0
3506 124 -3690 0
-3506 124 3690 0
3506 -124 3690 0
-3690 -3689 -3632 0
3690 3689 -3632 0
-3690 3689 3632 0
3690 -3689 3632 0
-3506 -124 3691 0
-3506 -3689 3691 0
-124 -3689 3691 0
3506 124 -3691 0
3506 3689 -3691 0
124 3689 -3691 0
-3507 -125 -3692 0
3507 125 -3692 0
-3507 125 3692 0
3507 -125 3692 0
-3692 -3691 -3633 0
3692 3691 -3633 0
-3692 3691 3633 0
3692 -3691 3633 0
-3507 -125 3693 0
-3507 -3691 3693 0
-125 -3691 3693 0
3507 125 -3693 0
3507 3691 -3693 0
125 3691 -3693 0
-3508 -126 -3694 0
3508 126 -3694 0
-3508 126 3694 0
3508 -126 3694 0
-3694 -3693 -3634 0
3694 3693 -3634 0
-3694 3693 3634 0
3694 -3693 3634 0
-3508 -126 3695 0
-3508 -3693 3695 0
-126 -3693 3695 0
3508 126 -3695 0
3508 3693 -3695 0
126 3693 -3695 0
-3509 -127 -3696 0
3509 127 -3696 0
-3509 127 3696 0
3509 -127 3696 0
-3696 -3695 -3635 0
3696 3695 -3635 0
-3696 3695 3635 0
3696 -3695 3635 0
-3509 -127 3697 0
-3509 -3695 3697 0
-127 -3695 3697 0
3509 127 -3697 0
3509 3695 -3697 0
127 3695 -3697 0
-3510 -128 -3698 0
3510 128 -3698 0
-3510 128 3698 0
3510 -128 3698 0
-3698 -3697 -3636 0
3698 3697 -3636 0
-3698 3697 3636 0
3698 -3697 3636 0
3699 0
-3700 0
3701 0
-3702 0
-3703 0
3704 0
-3705 0
3706 0
3707 0
3708 0
-3709 0
3710 0
3711 0
-3712 0
3713 0
3714 0
3715 0
-3716 0
3717 0
-3718 0
3719 0
3720 0
-3721 0
3722 0
3723 0
-3724 0
-3725 0
3726 0
-3727 0
3728 0
3729 0
3730 0
-3511 -3699 -3731 0
3511 3699 -3731 0
-3511 3699 3731 0
3511 -3699 3731 0
-3511 -3699 3763 0
3511 -3763 0
3699 -3763 0
-3512 -3700 -3764 0
3512 3700 -3764 0
-3512 3700 3764 0
3512 -3700 3764 0
-3764 -3763 -3732 0
3764 3763 -3732 0
-3764 3763 3732 0
3764 -3763 3732 0
-3512 -3700 3765 0
-3512 -3763 3765 0
-3700 -3763 3765 0
3512 3700 -3765 0
3512 3763 -3765 0
3700 3763 -3765 0
-3513 -3701 -3766 0
3513 3701 -3766 0
-3513 3701 3766 0
3513 -3701 3766 0
-3766 -3765 -3733 0
3766 3765 -3733 0
-3766 3765 3733 0
3766 -3765 3733 0
-3513 -3701 3767 0
-3513 -3765 3767 0
-3701 -3765 3767 0
3513 3701 -3767 0
3513 3765 -3767 0
3701 3765 -3767 0
-3514 -3702 -3768 0
3514 3702 -3768 0
-3514 3702 3768 0
3514 -3702 3768 0
-3768 -3767 -3734 0
3768 3767 -3734 0
-3768 3767 3734 0
3768 -3767 3734 0
-3514 -3702 3769 0
-3514 -3767 3769 0
-3702 -3767 3769 0
3514 3702 -3769 0
3514 3767 -3769 0
3702 3767 -3769 0
-3515 -3703 -3770 0
3515 3703 -3770 0
-3515 3703 3770 0
3515 -3703 3770 0
-3770 -3769 -3735 0
3770 3769 -3735 0
-3770 3769 3735 0
3770 -3769 3735 0
-3515 -3703 3771 0
-3515 -3769 3771 0
-3703 -3769 3771 0
3515 3703 -3771 0
3515 3769 -3771 0
3703 3769 -3771 0
-3516 -3704 -3772 0
3516 3704 -3772 0
-3516 3704 3772 0
3516 -3704 3772 0
-3772 -3771 -3736 0
3772 3771 -3736 0
-3772 3771 3736 0
3772 -3771 3736 0
-3516 -3704 3773 0
-3516 -3771 3773 0
-3704 -3771 3773 0
3516 3704 -3773 0
3516 3771 -3773 0
3704 3771 -3773 0
-3517 -3705 -3774 0
3517 3705 -3774 0
-3517 3705 3774 0
3517 -3705 3774 0
-3774 -3773 -3737 0
3774 3773 -3737 0
-3774 3773 3737 0
3774 -3773 3737 0
-3517 -3705 3775 0
-3517 -3773 3775 0
-3705 -3773 3775 0
3517 3705 -3775 0
3517 3773 -3775 0
3705 3773 -3775 0
-3518 -3706 -3776 0
3518 3706 -3776 0
-3518 3706 3776 0
3518 -3706 3776 0
-3776 -3775 -3738 0
3776 3775 -3738 0
-3776 3775 3738 0
3776 -3775 3738 0
-3518 -3706 3777 0
-3518 -3775 3777 0
-3706 -3775 3777 0
3518 3706 -3777 0
3518 3775 -3777 0
3706 3775 -3777 0
-3519 -3707 -3778 0
3519 3707 -3778 0
-3519 3707 3778 0
3519 -3707 3778 0
-3778 -3777 -3739 0
3778 3777 -3739 0
-3778 3777 3739 0
3778 -3777 3739 0
-3519 -3707 3779 0
-3519 -3777 3779 0
-3707 -3777 3779 0
3519 3707 -3779 0
3519 3777 -3779 0
3707 3777 -3779 0
-3520 -3708 -3780 0
3520 3708 -3780 0
-3520 3708 3780 0
3520 -3708 3780 0
-3780 -3779 -3740 0
3780 3779 -3740 0
-3780 3779 3740 0
3780 -3779 3740 0
-3520 -3708 3781 0
-3520 -3779 3781 0
-3708 -3779 3781 0
3520 3708 -3781 0
3520 3779 -3781 0
3708 3779 -3781 0
-3521 -3709 -3782 0
3521 3709 -3782 0
-3521 3709 3782 0
3521 -3709 3782 0
-3782 -3781 -3741 0
3782 3781 -3741 0
-3782 3781 3741 0
3782 -3781 3741 0
-3521 -3709 3783 0
-3521 -3781 3783 0
-3709 -3781 3783 0
3521 3709 -3783 0
3521 3781 -3783 0
3709 3781 -3783 0
-3522 -3710 -3784 0
3522 3710 -3784 0
-3522 3710 3784 0
3522 -3710 3784 0
-3784 -3783 -3742 0
3784 3783 -3742 0
-3784 3783 3742 0
3784 -3783 3742 0
-3522 -3710 3785 0
-3522 -3783 3785 0
-3710 -3783 3785 0
3522 3710 -3785 0
3522 3783 -3785 0
3710 3783 -3785 0
-3523 -3711 -3786 0
3523 3711 -3786 0
-3523 3711 3786 0
3523 -3711 3786 0
-3786 -3785 -3743 0
3786 3785 -3743 0
-3786 3785 3743 0
3786 -3785 3743 0
-3523 -3711 3787 0
-3523 -3785 3787 0
-3711 -3785 3787 0
3523 3711 -3787 0
3523 3785 -3787 0
3711 3785 -3787 0
-3524 -3712 -3788 0
3524 3712 -3788 0
-3524 3712 3788 0
3524 -3712 3788 0
-3788 -3787 -3744 0
3788 3787 -3744 0
-3788 3787 3744 0
3788 -3787 3744 0
-3524 -3712 3789 0
-3524 -3787 3789 0
-3712 -3787 3789 0
3524 3712 -3789 0
3524 3787 -3789 0
3712 3787 -3789 0
-3525 -3713 -3790 0
3525 3713 -3790 0
-3525 3713 3790 0
3525 -3713 3790 0
-3790 -3789 -3745 0
3790 3789 -3745 0
-3790 3789 3745 0
3790 -3789 3745 0
-3525 -3713 3791 0
-3525 -3789 3791 0
-3713 -3789 3791 0
3525 3713 -3791 0
3525 3789 -3791 0
3713 3789 -3791 0
-3526 -3714 -3792 0
3526 3714 -3792 0
-3526 3714 3792 0
3526 -3714 3792 0
-3792 -3791 -3746 0
3792 3791 -3746 0
-3792 3791 3746 0
3792 -3791 3746 0
-3526 -3714 3793 0
-3526 -3791 3793 0
-3714 -3791 3793 0
3526 3714 -3793 0
3526 3791 -3793 0
3714 3791 -3793 0
-3527 -3715 -3794 0
3527 3715 -3794 0
-3527 3715 3794 0
3527 -3715 3794 0
-3794 -3793 -3747 0
3794 3793 -3747 0
-3794 3793 3747 0
3794 -3793 3747 0
-3527 -3715 3795 0
-3527 -3793 3795 0
-3715 -3793 3795 0
3527 3715 -3795 0
3527 3793 -3795 0
3715 3793 -3795 0
-3528 -3716 -3796 0
3528 3716 -3796 0
-3528 3716 3796 0
3528 -3716 3796 0
-3796 -3795 -3748 0
3796 3795 -3748 0
-3796 3795 3748 0
3796 -3795 3748 0
-3528 -3716 3797 0
-3528 -3795 3797 0
-3716 -3795 3797 0
3528 3716 -3797 0
3528 3795 -3797 0
3716 3795 -3797 0
-3529 -3717 -3798 0
3529 3717 -3798 0
-3529 3717 3798 0
3529 -3717 3798 0
-3798 -3797 -3749 0
3798 3797 -3749 0
-3798 3797 3749 0
3798 -3797 3749 0
-3529 -3717 3799 0
-3529 -3797 3799 0
-3717 -3797 3799 0
3529 3717 -3799 0
3529 3797 -3799 0
3717 3797 -3799 0
-3530 -3718 -3800 0
3530 3718 -3800 0
-3530 3718 3800 0
3530 -3718 3800 0
-3800 -3799 -3750 0
3800 3799 -3750 0
-3800 3799 3750 0
3800 -3799 3750 0
-3530 -3718 3801 0
-3530 -3799 3801 0
-3718 -3799 3801 0
3530 3718 -3801 0
3530 3799 -3801 0
3718 3799 -3801 0
-3531 -3719 -3802 0
3531 3719 -3802 0
-3531 3719 3802 0
3531 -3719 3802 0
-3802 -3801 -3751 0
3802 3801 -3751 0
-3802 3801 3751 0
3802 -3801 3751 0
-3531 -3719 3803 0
-3531 -3801 3803 0
-3719 -3801 3803 0
3531 3719 -3803 0
3531 3801 -3803 0
3719 3801 -3803 0
-3532 -3720 -3804 0
3532 3720 -3804 0
-3532 3720 3804 0
3532 -3720 3804 0
-3804 -3803 -3752 0
3804 3803 -3752 0
-3804 3803 3752 0
3804 -3803 3752 0
-3532 -3720 3805 0
-3532 -3803 3805 0
-3720 -3803 3805 0
3532 3720 -3805 0
3532 3803 -3805 0
3720 3803 -3805 0
-3533 -3721 -3806 0
3533 3721 -3806 0
-3533 3721 3806 0
3533 -3721 3806 0
-3806 -3805 -3753 0
3806 3805 -3753 0
-3806 3805 3753 0
3806 -3805 3753 0
-3533 -3721 3807 0
-3533 -3805 3807 0
-3721 -3805 3807 0
3533 3721 -3807 0
3533 3805 -3807 0
3721 3805 -3807 0
-3534 -3722 -3808 0
3534 3722 -3808 0
-3534 3722 3808 0
3534 -3722 3808 0
-3808 -3807 -3754 0
3808 3807 -3754 0
-3808 3807 3754 0
3808 -3807 3754 0
-3534 -3722 3809 0
-3534 -3807 3809 0
-3722 -3807 3809 0
3534 3722 -3809 0
3534 3807 -3809 0
3722 3807 -3809 0
-3535 -3723 -3810 0
3535 3723 -3810 0
-3535 3723 3810 0
3535 -3723 3810 0
-3810 -3809 -3755 0
3810 3809 -3755 0
-3810 3809 3755 0
3810 -3809 3755 0
-3535 -3723 3811 0
-3535 -3809 3811 0
-3723 -3809 3811 0
3535 3723 -3811 0
3535 3809 -3811 0
3723 3809 -3811 0
-3536 -3724 -3812 0
3536 3724 -3812 0
-3536 3724 3812 0
3536 -3724 3812 0
-3812 -3811 -3756 0
3812 3811 -3756 0
-3812 3811 3756 0
3812 -3811 3756 0
-3536 -3724 3813 0
-3536 -3811 3813 0
-3724 -3811 3813 0
3536 3724 -3813 0
3536 3811 -3813 0
3724 3811 -3813 0
-3537 -3725 -3814 0
3537 3725 -3814 0
-3537 3725 3814 0
3537 -3725 3814 0
-3814 -3813 -3757 0
3814 3813 -3757 0
-3814 3813 3757 0
3814 -3813 3757 0
-3537 -3725 3815 0
-3537 -3813 3815 0
-3725 -3813 3815 0
3537 3725 -3815 0
3537 3813 -3815 0
3725 3813 -3815 0
-3538 -3726 -3816 0
3538 3726 -3816 0
-3538 3726 3816 0
3538 -3726 3816 0
-3816 -3815 -3758 0
3816 3815 -3758 0
-3816 3815 3758 0
3816 -3815 3758 0
-3538 -3726 3817 0
-3538 -3815 3817 0
-3726 -3815 3817 0
3538 3726 -3817 0
3538 3815 -3817 0
3726 3815 -3817 0
-3539 -3727 -3818 0
3539 3727 -3818 0
-3539 3727 3818 0
3539 -3727 3818 0
-3818 -3817 -3759 0
3818 3817 -3759 0
-3818 3817 3759 0
3818 -3817 3759 0
-3539 -3727 3819 0
-3539 -3817 3819 0
-3727 -3817 3819 0
3539 3727 -3819 0
3539 3817 -3819 0
3727 3817 -3819 0
-3540 -3728 -3820 0
3540 3728 -3820 0
-3540 3728 3820 0
3540 -3728 3820 0
-3820 -3819 -3760 0
3820 3819 -3760 0
-3820 3819 3760 0
3820 -3819 3760 0
-3540 -3728 3821 0
-3540 -3819 3821 0
-3728 -3819 3821 0
3540 3728 -3821 0
3540 3819 -3821 0
3728 3819 -3821 0
-3541 -3729 -3822 0
3541 3729 -3822 0
-3541 3729 3822 0
3541 -3729 3822 0
-3822 -3821 -3761 0
3822 3821 -3761 0
-3822 3821 3761 0
3822 -3821 3761 0
-3541 -3729 3823 0
-3541 -3821 3823 0
-3729 -3821 3823 0
3541 3729 -3823 0
3541 3821 -3823 0
3729 3821 -3823 0
-3542 -3730 -3824 0
3542 3730 -3824 0
-3542 3730 3824 0
3542 -3730 3824 0
-3824 -3823 -3762 0
3824 3823 -3762 0
-3824 3823 3762 0
3824 -3823 3762 0
-3605 -3731 -3825 0
3605 3731 -3825 0
-3605 3731 3825 0
3605 -3731 3825 0
-3605 -3731 3857 0
3605 -3857 0
3731 -3857 0
-3606 -3732 -3858 0
3606 3732 -3858 0
-3606 3732 3858 0
3606 -3732 3858 0
-3858 -3857 -3826 0
3858 3857 -3826 0
-3858 3857 3826 0
3858 -3857 3826 0
-3606 -3732 3859 0
-3606 -3857 3859 0
-3732 -3857 3859 0
3606 3732 -3859 0
3606 3857 -3859 0
3732 3857 -3859 0
-3607 -3733 -3860 0
3607 3733 -3860 0
-3607 3733 3860 0
3607 -3733 3860 0
-3860 -3859 -3827 0
3860 3859 -3827 0
-3860 3859 3827 0
3860 -3859 3827 0
-3607 -3733 3861 0
-3607 -3859 3861 0
-3733 -3859 3861 0
3607 3733 -3861 0
3607 3859 -3861 0
3733 3859 -3861 0
-3608 -3734 -3862 0
3608 3734 -3862 0
-3608 3734 3862 0
3608 -3734 3862 0
-3862 -3861 -3828 0
3862 3861 -3828 0
-3862 3861 3828 0
3862 -3861 3828 0
-3608 -3734 3863 0
-3608 -3861 3863 0
-3734 -3861 3863 0
3608 3734 -3863 0
3608 3861 -3863 0
3734 3861 -3863 0
-3609 -3735 -3864 0
3609 3735 -3864 0
-3609 3735 3864 0
3609 -3735 3864 0
-3864 -3863 -3829 0
3864 3863 -3829 0
-3864 3863 3829 0
3864 -3863 3829 0
-3609 -3735 3865 0
-3609 -3863 3865 0
-3735 -3863 3865 0
3609 3735 -3865 0
3609 3863 -3865 0
3735 3863 -3865 0
-3610 -3736 -3866 0
3610 3736 -3866 0
-3610 3736 3866 0
3610 -3736 3866 0
-3866 -3865 -3830 0
3866 3865 -3830 0
-3866 3865 3830 0
3866 -3865 3830 0
-3610 -3736 3867 0
-3610 -3865 3867 0
-3736 -3865 3867 0
3610 3736 -3867 0
3610 3865 -3867 0
3736 3865 -3867 0
-3611 -3737 -3868 0
3611 3737 -3868 0
-3611 3737 3868 0
3611 -3737 3868 0
-3868 -3867 -3831 0
3868 3867 -3831 0
-3868 3867 3831 0
3868 -3867 3831 0
-3611 -3737 3869 0
-3611 -3867 3869 0
-3737 -3867 3869 0
3611 3737 -3869 0
3611 3867 -3869 0
3737 3867 -3869 0
-3612 -3738 -3870 0
3612 3738 -3870 0
-3612 3738 3870 0
3612 -3738 3870 0
-3870 -3869 -3832 0
3870 3869 -3832 0
-3870 3869 3832 0
3870 -3869 3832 0
-3612 -3738 3871 0
-3612 -3869 3871 0
-3738 -3869 3871 0
3612 3738 -3871 0
3612 3869 -3871 0
3738 3869 -3871 0
-3613 -3739 -3872 0
3613 3739 -3872 0
-3613 3739 3872 0
3613 -3739 3872 0
-3872 -3871 -3833 0
3872 3871 -3833 0
-3872 3871 3833 0
3872 -3871 3833 0
-3613 -3739 3873 0
-3613 -3871 3873 0
-3739 -3871 3873 0
3613 3739 -3873 0
3613 3871 -3873 0
3739 3871 -3873 0
-3614 -3740 -3874 0
3614 3740 -3874 0
-3614 3740 3874 0
3614 -3740 3874 0
-3874 -3873 -3834 0
3874 3873 -3834 0
-3874 3873 3834 0
3874 -3873 3834 0
-3614 -3740 3875 0
-3614 -3873 3875 0
-3740 -3873 3875 0
3614 3740 -3875 0
3614 3873 -3875 0
3740 3873 -3875 0
-3615 -3741 -3876 0
3615 3741 -3876 0
-3615 3741 3876 0
3615 -3741 3876 0
-3876 -3875 -3835 0
3876 3875 -3835 0
-3876 3875 3835 0
3876 -3875 3835 0
-3615 -3741 3877 0
-3615 -3875 3877 0
-3741 -3875 3877 0
3615 3741 -3877 0
3615 3875 -3877 0
3741 3875 -3877 0
-3616 -3742 -3878 0
3616 3742 -3878 0
-3616 3742 3878 0
3616 -3742 3878 0
-3878 -3877 -3836 0
3878 3877 -3836 0
-3878 3877 3836 0
3878 -3877 3836 0
-3616 -3742 3879 0
-3616 -3877 3879 0
-3742 -3877 3879 0
3616 3742 -3879 0
3616 3877 -3879 0
3742 3877 -3879 0
-3617 -3743 -3880 0
3617 3743 -3880 0
-3617 3743 3880 0
3617 -3743 3880 0
-3880 -3879 -3837 0
3880 3879 -3837 0
-3880 3879 3837 0
3880 -3879 3837 0
-3617 -3743 3881 0
-3617 -3879 3881 0
-3743 -3879 3881 0
3617 3743 -3881 0
3617 3879 -3881 0
3743 3879 -3881 0
-3618 -3744 -3882 0
3618 3744 -3882 0
-3618 3744 3882 0
3618 -3744 3882 0
-3882 -3881 -3838 0
3882 3881 -3838 0
-3882 3881 3838 0
3882 -3881 3838 0
-3618 -3744 3883 0
-3618 -3881 3883 0
-3744 -3881 3883 0
3618 3744 -3883 0
3618 3881 -3883 0
3744 3881 -3883 0
-3619 -3745 -3884 0
3619 3745 -3884 0
-3619 3745 3884 0
3619 -3745 3884 0
-3884 -3883 -3839 0
3884 3883 -3839 0
-3884 3883 3839 0
3884 -3883 3839 0
-3619 -3745 3885 0
-3619 -3883 3885 0
-3745 -3883 3885 0
3619 3745 -3885 0
3619 3883 -3885 0
3745 3883 -3885 0
-3620 -3746 -3886 0
3620 3746 -3886 0
-3620 3746 3886 0
3620 -3746 3886 0
-3886 -3885 -3840 0
3886 3885 -3840 0
-3886 3885 3840 0
3886 -3885 3840 0
-3620 -3746 3887 0
-3620 -3885 3887 0
-3746 -3885 3887 0
3620 3746 -3887 0
3620 3885 -3887 0
3746 3885 -3887 0
-3621 -3747 -3888 0
3621 3747 -3888 0
-3621 3747 3888 0
3621 -3747 3888 0
-3888 -3887 -3841 0
3888 3887 -3841 0
-3888 3887 3841 0
3888 -3887 3841 0
-3621 -3747 3889 0
-3621 -3887 3889 0
-3747 -3887 3889 0
3621 3747 -3889 0
3621 3887 -3889 0
3747 3887 -3889 0
-3622 -3748 -3890 0
3622 3748 -3890 0
-3622 3748 3890 0
3622 -3748 3890 0
-3890 -3889 -3842 0
3890 3889 -3842 0
-3890 3889 3842 0
3890 -3889 3842 0
-3622 -3748 3891 0
-3622 -3889 3891 0
-3748 -3889 3891 0
3622 3748 -3891 0
3622 3889 -3891 0
3748 3889 -3891 0
-3623 -3749 -3892 0
3623 3749 -3892 0
-3623 3749 3892 0
3623 -3749 3892 0
-3892 -3891 -3843 0
3892 3891 -3843 0
-3892 3891 3843 0
3892 -3891 3843 0
-3623 -3749 3893 0
-3623 -3891 3893 0
-3749 -3891 3893 0
3623 3749 -3893 0
3623 3891 -3893 0
3749 3891 -3893 0
-3624 -3750 -3894 0
3624 3750 -3894 0
-3624 3750 3894 0
3624 -3750 3894 0
-3894 -3893 -3844 0
3894 3893 -3844 0
-3894 3893 3844 0
3894 -3893 3844 0
-3624 -3750 3895 0
-3624 -3893 3895 0
-3750 -3893 3895 0
3624 3750 -3895 0
3624 3893 -3895 0
3750 3893 -3895 0
-3625 -3751 -3896 0
3625 3751 -3896 0
-3625 3751 3896 0
3625 -3751 3896 0
-3896 -3895 -3845 0
3896 3895 -3845 0
-3896 3895 3845 0
3896 -3895 3845 0
-3625 -3751 3897 0
-3625 -3895 3897 0
-3751 -3895 3897 0
3625 3751 -3897 0
3625 3895 -3897 0
3751 3895 -3897 0
-3626 -3752 -3898 0
3626 3752 -3898 0
-3626 3752 3898 0
3626 -3752 3898 0
-3898 -3897 -3846 0
3898 3897 -3846 0
-3898 3897 3846 0
3898 -3897 3846 0
-3626 -3752 3899 0
-3626 -3897 3899 0
-3752 -3897 3899 0
3626 3752 -3899 0
3626 3897 -3899 0
3752 3897 -3899 0
-3627 -3753 -3900 0
3627 3753 -3900 0
-3627 3753 3900 0
3627 -3753 3900 0
-3900 -3899 -3847 0
3900 3899 -3847 0
-3900 3899 3847 0
3900 -3899 3847 0
-3627 -3753 3901 0
-3627 -3899 3901 0
-3753 -3899 3901 0
3627 3753 -3901 0
3627 3899 -3901 0
3753 3899 -3901 0
-3628 -3754 -3902 0
3628 3754 -3902 0
-3628 3754 3902 0
3628 -3754 3902 0
-3902 -3901 -3848 0
3902 3901 -3848 0
-3902 3901 3848 0
3902 -3901 3848 0
-3628 -3754 3903 0
-3628 -3901 3903 0
-3754 -3901 3903 0
3628 3754 -3903 0
3628 3901 -3903 0
3754 3901 -3903 0
-3629 -3755 -3904 0
3629 3755 -3904 0
-3629 3755 3904 0
3629 -3755 3904 0
-3904 -3903 -3849 0
3904 3903 -3849 0
-3904 3903 3849 0
3904 -3903 3849 0
-3629 -3755 3905 0
-3629 -3903 3905 0
-3755 -3903 3905 0
3629 3755 -3905 0
3629 3903 -3905 0
3755 3903 -3905 0
-3630 -3756 -3906 0
3630 3756 -3906 0
-3630 3756 3906 0
3630 -3756 3906 0
-3906 -3905 -3850 0
3906 3905 -3850 0
-3906 3905 3850 0
3906 -3905 3850 0
-3630 -3756 3907 0
-3630 -3905 3907 0
-3756 -3905 3907 0
3630 3756 -3907 0
3630 3905 -3907 0
3756 3905 -3907 0
-3631 -3757 -3908 0
3631 3757 -3908 0
-3631 3757 3908 0
3631 -3757 3908 0
-3908 -3907 -3851 0
3908 3907 -3851 0
-3908 3907 3851 0
3908 -3907 3851 0
-3631 -3757 3909 0
-3631 -3907 3909 0
-3757 -3907 3909 0
3631 3757 -3909 0
3631 3907 -3909 0
3757 3907 -3909 0
-3632 -3758 -3910 0
3632 3758 -3910 0
-3632 3758 3910 0
3632 -3758 3910 0
-3910 -3909 -3852 0
3910 3909 -3852 0
-3910 3909 3852 0
3910 -3909 3852 0
-3632 -3758 3911 0
-3632 -3909 3911 0
-3758 -3909 3911 0
3632 3758 -3911 0
3632 3909 -3911 0
3758 3909 -3911 0
-3633 -3759 -3912 0
3633 3759 -3912 0
-3633 3759 3912 0
3633 -3759 3912 0
-3912 -3911 -3853 0
3912 3911 -3853 0
-3912 3911 3853 0
3912 -3911 3853 0
-3633 -3759 3913 0
-3633 -3911 3913 0
-3759 -3911 3913 0
3633 3759 -3913 0
3633 3911 -3913 0
3759 3911 -3913 0
-3634 -3760 -3914 0
3634 3760 -3914 0
-3634 3760 3914 0
3634 -3760 3914 0
-3914 -3913 -3854 0
3914 3913 -3854 0
-3914 3913 3854 0
3914 -3913 3854 0
-3634 -3760 3915 0
-3634 -3913 3915 0
-3760 -3913 3915 0
3634 3760 -3915 0
3634 3913 -3915 0
3760 3913 -3915 0
-3635 -3761 -3916 0
3635 3761 -3916 0
-3635 3761 3916 0
3635 -3761 3916 0
-3916 -3915 -3855 0
3916 3915 -3855 0
-3916 3915 3855 0
3916 -3915 3855 0
-3635 -3761 3917 0
-3635 -3915 3917 0
-3761 -3915 3917 0
3635 3761 -3917 0
3635 3915 -3917 0
3761 3915 -3917 0
-3636 -3762 -3918 0
3636 3762 -3918 0
-3636 3762 3918 0
3636 -3762 3918 0
-3918 -3917 -3856 0
3918 3917 -3856 0
-3918 3917 3856 0
3918 -3917 3856 0
-3323 -3334 -3951 0
3323 3334 -3951 0
-3323 3334 3951 0
3323 -3334 3951 0
-3951 -3343 -3919 0
3951 3343 -3919 0
-3951 3343 3919 0
3951 -3343 3919 0
-3324 -3335 -3952 0
3324 3335 -3952 0
-3324 3335 3952 0
3324 -3335 3952 0
-3952 -3344 -3920 0
3952 3344 -3920 0
-3952 3344 3920 0
3952 -3344 3920 0
-3325 -3336 -3953 0
3325 3336 -3953 0
-3325 3336 3953 0
3325 -3336 3953 0
-3953 -3345 -3921 0
3953 3345 -3921 0
-3953 3345 3921 0
3953 -3345 3921 0
-3326 -3337 -3954 0
3326 3337 -3954 0
-3326 3337 3954 0
3326 -3337 3954 0
-3954 -3346 -3922 0
3954 3346 -3922 0
-3954 3346 3922 0
3954 -3346 3922 0
-3327 -3338 -3955 0
3327 3338 -3955 0
-3327 3338 3955 0
3327 -3338 3955 0
-3955 -3347 -3923 0
3955 3347 -3923 0
-3955 3347 3923 0
3955 -3347 3923 0
-3328 -3339 -3956 0
3328 3339 -3956 0
-3328 3339 3956 0
3328 -3339 3956 0
-3956 -3348 -3924 0
3956 3348 -3924 0
-3956 3348 3924 0
3956 -3348 3924 0
-3329 -3340 -3957 0
3329 3340 -3957 0
-3329 3340 3957 0
3329 -3340 3957 0
-3957 -3349 -3925 0
3957 3349 -3925 0
-3957 3349 3925 0
3957 -3349 3925 0
-3330 -3341 -3958 0
3330 3341 -3958 0
-3330 3341 3958 0
3330 -3341 3958 0
-3958 -3350 -3926 0
3958 3350 -3926 0
-3958 3350 3926 0
3958 -3350 3926 0
-3331 -3342 -3959 0
3331 3342 -3959 0
-3331 3342 3959 0
3331 -3342 3959 0
-3959 -3351 -3927 0
3959 3351 -3927 0
-3959 3351 3927 0
3959 -3351 3927 0
-3332 -3343 -3960 0
3332 3343 -3960 0
-3332 3343 3960 0
3332 -3343 3960 0
-3960 -3352 -3928 0
3960 3352 -3928 0
-3960 3352 3928 0
3960 -3352 3928 0
-3333 -3344 -3961 0
3333 3344 -3961 0
-3333 3344 3961 0
3333 -3344 3961 0
-3961 -3321 -3929 0
3961 3321 -3929 0
-3961 3321 3929 0
3961 -3321 3929 0
-3334 -3345 -3962 0
3334 3345 -3962 0
-3334 3345 3962 0
3334 -3345 3962 0
-3962 -3322 -3930 0
3962 3322 -3930 0
-3962 3322 3930 0
3962 -3322 3930 0
-3335 -3346 -3963 0
3335 3346 -3963 0
-3335 3346 3963 0
3335 -3346 3963 0
-3963 -3323 -3931 0
3963 3323 -3931 0
-3963 3323 3931 0
3963 -3323 3931 0
-3336 -3347 -3964 0
3336 3347 -3964 0
-3336 3347 3964 0
3336 -3347 3964 0
-3964 -3324 -3932 0
3964 3324 -3932 0
-3964 3324 3932 0
3964 -3324 3932 0
-3337 -3348 -3965 0
3337 3348 -3965 0
-3337 3348 3965 0
3337 -3348 3965 0
-3965 -3325 -3933 0
3965 3325 -3933 0
-3965 3325 3933 0
3965 -3325 3933 0
-3338 -3349 -3966 0
3338 3349 -3966 0
-3338 3349 3966 0
3338 -3349 3966 0
-3966 -3326 -3934 0
3966 3326 -3934 0
-3966 3326 3934 0
3966 -3326 3934 0
-3339 -3350 -3967 0
3339 3350 -3967 0
-3339 3350 3967 0
3339 -3350 3967 0
-3967 -3327 -3935 0
3967 3327 -3935 0
-3967 3327 3935 0
3967 -3327 3935 0
-3340 -3351 -3968 0
3340 3351 -3968 0
-3340 3351 3968 0
3340 -3351 3968 0
-3968 -3328 -3936 0
3968 3328 -3936 0
-3968 3328 3936 0
3968 -3328 3936 0
-3341 -3352 -3969 0
3341 3352 -3969 0
-3341 3352 3969 0
3341 -3352 3969 0
-3969 -3329 -3937 0
3969 3329 -3937 0
-3969 3329 3937 0
3969 -3329 3937 0
-3342 -3321 -3970 0
3342 3321 -3970 0
-3342 3321 3970 0
3342 -3321 3970 0
-3970 -3330 -3938 0
3970 3330 -3938 0
-3970 3330 3938 0
3970 -3330 3938 0
-3343 -3322 -3971 0
3343 3322 -3971 0
-3343 3322 3971 0
3343 -3322 3971 0
-3971 -3331 -3939 0
3971 3331 -3939 0
-3971 3331 3939 0
3971 -3331 3939 0
-3344 -3323 -3972 0
3344 3323 -3972 0
-3344 3323 3972 0
3344 -3323 3972 0
-3972 -3332 -3940 0
3972 3332 -3940 0
-3972 3332 3940 0
3972 -3332 3940 0
-3345 -3324 -3973 0
3345 3324 -3973 0
-3345 3324 3973 0
3345 -3324 3973 0
-3973 -3333 -3941 0
3973 3333 -3941 0
-3973 3333 3941 0
3973 -3333 3941 0
-3346 -3325 -3974 0
3346 3325 -3974 0
-3346 3325 3974 0
3346 -3325 3974 0
-3974 -3334 -3942 0
3974 3334 -3942 0
-3974 3334 3942 0
3974 -3334 3942 0
-3347 -3326 -3975 0
3347 3326 -3975 0
-3347 3326 3975 0
3347 -3326 3975 0
-3975 -3335 -3943 0
3975 3335 -3943 0
-3975 3335 3943 0
3975 -3335 3943 0
-3348 -3327 -3976 0
3348 3327 -3976 0
-3348 3327 3976 0
3348 -3327 3976 0
-3976 -3336 -3944 0
3976 3336 -3944 0
-3976 3336 3944 0
3976 -3336 3944 0
-3349 -3328 -3977 0
3349 3328 -3977 0
-3349 3328 3977 0
3349 -3328 3977 0
-3977 -3337 -3945 0
3977 3337 -3945 0
-3977 3337 3945 0
3977 -3337 3945 0
-3350 -3329 -3978 0
3350 3329 -3978 0
-3350 3329 3978 0
3350 -3329 3978 0
-3978 -3338 -3946 0
3978 3338 -3946 0
-3978 3338 3946 0
3978 -3338 3946 0
-3351 -3330 -3979 0
3351 3330 -3979 0
-3351 3330 3979 0
3351 -3330 3979 0
-3979 -3339 -3947 0
3979 3339 -3947 0
-3979 3339 3947 0
3979 -3339 3947 0
-3352 -3331 -3980 0
3352 3331 -3980 0
-3352 3331 3980 0
3352 -3331 3980 0
-3980 -3340 -3948 0
3980 3340 -3948 0
-3980 3340 3948 0
3980 -3340 3948 0
-3321 -3332 -3981 0
3321 3332 -3981 0
-3321 3332 3981 0
3321 -3332 3981 0
-3981 -3341 -3949 0
3981 3341 -3949 0
-3981 3341 3949 0
3981 -3341 3949 0
-3322 -3333 -3982 0
3322 3333 -3982 0
-3322 3333 3982 0
3322 -3333 3982 0
-3982 -3342 -3950 0
3982 3342 -3950 0
-3982 3342 3950 0
3982 -3342 3950 0
-3321 -2439 3983 0
-3321 -1557 3983 0
-2439 -1557 3983 0
3321 2439 -3983 0
3321 1557 -3983 0
2439 1557 -3983 0
-3322 -2440 3984 0
-3322 -1558 3984 0
-2440 -1558 3984 0
3322 2440 -3984 0
3322 1558 -3984 0
2440 1558 -3984 0
-3323 -2441 3985 0
-3323 -1559 3985 0
-2441 -1559 3985 0
3323 2441 -3985 0
3323 1559 -3985 0
2441 1559 -3985 0
-3324 -2442 3986 0
-3324 -1560 3986 0
-2442 -1560 3986 0
3324 2442 -3986 0
3324 1560 -3986 0
2442 1560 -3986 0
-3325 -2443 3987 0
-3325 -1561 3987 0
-2443 -1561 3987 0
3325 2443 -3987 0
3325 1561 -3987 0
2443 1561 -3987 0
-3326 -2444 3988 0
-3326 -1562 3988 0
-2444 -1562 3988 0
3326 2444 -3988 0
3326 1562 -3988 0
2444 1562 -3988 0
-3327 -2445 3989 0
-3327 -1563 3989 0
-2445 -1563 3989 0
3327 2445 -3989 0
3327 1563 -3989 0
2445 1563 -3989 0
-3328 -2446 3990 0
-3328 -1564 3990 0
-2446 -1564 3990 0
3328 2446 -3990 0
3328 1564 -3990 0
2446 1564 -3990 0
-3329 -2447 3991 0
-3329 -1565 3991 0
-2447 -1565 3991 0
3329 2447 -3991 0
3329 1565 -3991 0
2447 1565 -3991 0
-3330 -2448 3992 0
-3330 -1566 3992 0
-2448 -1566 3992 0
3330 2448 -3992 0
3330 1566 -3992 0
2448 1566 -3992 0
-3331 -2449 3993 0
-3331 -1567 3993 0
-2449 -1567 3993 0
3331 2449 -3993 0
3331 1567 -3993 0
2449 1567 -3993 0
-3332 -2450 3994 0
-3332 -1568 3994 0
-2450 -1568 3994 0
3332 2450 -3994 0
3332 1568 -3994 0
2450 1568 -3994 0
-3333 -2451 3995 0
-3333 -1569 3995 0
-2451 -1569 3995 0
3333 2451 -3995 0
3333 1569 -3995 0
2451 1569 -3995 0
-3334 -2452 3996 0
-3334 -1570 3996 0
-2452 -1570 3996 0
3334 2452 -3996 0
3334 1570 -3996 0
2452 1570 -3996 0
-3335 -2453 3997 0
-3335 -1571 3997 0
-2453 -1571 3997 0
3335 2453 -3997 0
3335 1571 -3997 0
2453 1571 -3997 0
-3336 -2454 3998 0
-3336 -1572 3998 0
-2454 -1572 3998 0
3336 2454 -3998 0
3336 1572 -3998 0
2454 1572 -3998 0
-3337 -2455 3999 0
-3337 -1573 3999 0
-2455 -1573 3999 0
3337 2455 -3999 0
3337 1573 -3999 0
2455 1573 -3999 0
-3338 -2456 4000 0
-3338 -1574 4000 0
-2456 -1574 4000 0
3338 2456 -4000 0
3338 1574 -4000 0
2456 1574 -4000 0
-3339 -2457 4001 0
-3339 -1575 4001 0
-2457 -1575 4001 0
3339 2457 -4001 0
3339 1575 -4001 0
2457 1575 -4001 0
-3340 -2458 4002 0
-3340 -1576 4002 0
-2458 -1576 4002 0
3340 2458 -4002 0
3340 1576 -4002 0
2458 1576 -4002 0
-3341 -2459 4003 0
-3341 -1577 4003 0
-2459 -1577 4003 0
3341 2459 -4003 0
3341 1577 -4003 0
2459 1577 -4003 0
-3342 -2460 4004 0
-3342 -1578 4004 0
-2460 -1578 4004 0
3342 2460 -4004 0
3342 1578 -4004 0
2460 1578 -4004 0
-3343 -2461 4005 0
-3343 -1579 4005 0
-2461 -1579 4005 0
3343 2461 -4005 0
3343 1579 -4005 0
2461 1579 -4005 0
-3344 -2462 4006 0
-3344 -1580 4006 0
-2462 -1580 4006 0
3344 2462 -4006 0
3344 1580 -4006 0
2462 1580 -4006 0
-3345 -2463 4007 0
-3345 -1581 4007 0
-2463 -1581 4007 0
3345 2463 -4007 0
3345 1581 -4007 0
2463 1581 -4007 0
-3346 -2464 4008 0
-3346 -1582 4008 0
-2464 -1582 4008 0
3346 2464 -4008 0
3346 1582 -4008 0
2464 1582 -4008 0
-3347 -2465 4009 0
-3347 -1583 4009 0
-2465 -1583 4009 0
3347 2465 -4009 0
3347 1583 -4009 0
2465 1583 -4009 0
-3348 -2466 4010 0
-3348 -1584 4010 0
-2466 -1584 4010 0
3348 2466 -4010 0
3348 1584 -4010 0
2466 1584 -4010 0
-3349 -2467 4011 0
-3349 -1585 4011 0
-2467 -1585 4011 0
3349 2467 -4011 0
3349 1585 -4011 0
2467 1585 -4011 0
-3350 -2468 4012 0
-3350 -1586 4012 0
-2468 -1586 4012 0
3350 2468 -4012 0
3350 1586 -4012 0
2468 1586 -4012 0
-3351 -2469 4013 0
-3351 -1587 4013 0
-2469 -1587 4013 0
3351 2469 -4013 0
3351 1587 -4013 0
2469 1587 -4013 0
-3352 -2470 4014 0
-3352 -1588 4014 0
-2470 -1588 4014 0
3352 2470 -4014 0
3352 1588 -4014 0
2470 1588 -4014 0
-3919 -3983 -4015 0
3919 3983 -4015 0
-3919 3983 4015 0
3919 -3983 4015 0
-3919 -3983 4047 0
3919 -4047 0
3983 -4047 0
-3920 -3984 -4048 0
3920 3984 -4048 0
-3920 3984 4048 0
3920 -3984 4048 0
-4048 -4047 -4016 0
4048 4047 -4016 0
-4048 4047 4016 0
4048 -4047 4016 0
-3920 -3984 4049 0
-3920 -4047 4049 0
-3984 -4047 4049 0
3920 3984 -4049 0
3920 4047 -4049 0
3984 4047 -4049 0
-3921 -3985 -4050 0
3921 3985 -4050 0
-3921 3985 4050 0
3921 -3985 4050 0
-4050 -4049 -4017 0
4050 4049 -4017 0
-4050 4049 4017 0
4050 -4049 4017 0
-3921 -3985 4051 0
-3921 -4049 4051 0
-3985 -4049 4051 0
3921 3985 -4051 0
3921 4049 -4051 0
3985 4049 -4051 0
-3922 -3986 -4052 0
3922 3986 -4052 0
-3922 3986 4052 0
3922 -3986 4052 0
-4052 -4051 -4018 0
4052 4051 -4018 0
-4052 4051 4018 0
4052 -4051 4018 0
-3922 -3986 4053 0
-3922 -4051 4053 0
-3986 -4051 4053 0
3922 3986 -4053 0
3922 4051 -4053 0
3986 4051 -4053 0
-3923 -3987 -4054 0
3923 3987 -4054 0
-3923 3987 4054 0
3923 -3987 4054 0
-4054 -4053 -4019 0
4054 4053 -4019 0
-4054 4053 4019 0
4054 -4053 4019 0
-3923 -3987 4055 0
-3923 -4053 4055 0
-3987 -4053 4055 0
3923 3987 -4055 0
3923 4053 -4055 0
3987 4053 -4055 0
-3924 -3988 -4056 0
3924 3988 -4056 0
-3924 3988 4056 0
3924 -3988 4056 0
-4056 -4055 -4020 0
4056 4055 -4020 0
-4056 4055 4020 0
4056 -4055 4020 0
-3924 -3988 4057 0
-3924 -4055 4057 0
-3988 -4055 4057 0
3924 3988 -4057 0
3924 4055 -4057 0
3988 4055 -4057 0
-3925 -3989 -4058 0
3925 3989 -4058 0
-3925 3989 4058 0
3925 -3989 4058 0
-4058 -4057 -4021 0
4058 4057 -4021 0
-4058 4057 4021 0
4058 -4057 4021 0
-3925 -3989 4059 0
-3925 -4057 4059 0
-3989 -4057 4059 0
3925 3989 -4059 0
3925 4057 -4059 0
3989 4057 -4059 0
-3926 -3990 -4060 0
3926 3990 -4060 0
-3926 3990 4060 0
3926 -3990 4060 0
-4060 -4059 -4022 0
4060 4059 -4022 0
-4060 4059 4022 0
4060 -4059 4022 0
-3926 -3990 4061 0
-3926 -4059 4061 0
-3990 -4059 4061 0
3926 3990 -4061 0
3926 4059 -4061 0
3990 4059 -4061 0
-3927 -3991 -4062 0
3927 3991 -4062 0
-3927 3991 4062 0
3927 -3991 4062 0
-4062 -4061 -4023 0
4062 4061 -4023 0
-4062 4061 4023 0
4062 -4061 4023 0
-3927 -3991 4063 0
-3927 -4061 4063 0
-3991 -4061 4063 0
3927 3991 -4063 0
3927 4061 -4063 0
3991 4061 -4063 0
-3928 -3992 -4064 0
3928 3992 -4064 0
-3928 3992 4064 0
3928 -3992 4064 0
-4064 -4063 -4024 0
4064 4063 -4024 0
-4064 4063 4024 0
4064 -4063 4024 0
-3928 -3992 4065 0
-3928 -4063 4065 0
-3992 -4063 4065 0
3928 3992 -4065 0
3928 4063 -4065 0
3992 4063 -4065 0
-3929 -3993 -4066 0
3929 3993 -4066 0
-3929 3993 4066 0
3929 -3993 4066 0
-4066 -4065 -4025 0
4066 4065 -4025 0
-4066 4065 4025 0
4066 -4065 4025 0
-3929 -3993 4067 0
-3929 -4065 4067 0
-3993 -4065 4067 0
3929 3993 -4067 0
3929 4065 -4067 0
3993 4065 -4067 0
-3930 -3994 -4068 0
3930 3994 -4068 0
-3930 3994 4068 0
3930 -3994 4068 0
-4068 -4067 -4026 0
4068 4067 -4026 0
-4068 4067 4026 0
4068 -4067 4026 0
-3930 -3994 4069 0
-3930 -4067 4069 0
-3994 -4067 4069 0
3930 3994 -4069 0
3930 4067 -4069 0
3994 4067 -4069 0
-3931 -3995 -4070 0
3931 3995 -4070 0
-3931 3995 4070 0
3931 -3995 4070 0
-4070 -4069 -4027 0
4070 4069 -4027 0
-4070 4069 4027 0
4070 -4069 4027 0
-3931 -3995 4071 0
-3931 -4069 4071 0
-3995 -4069 4071 0
3931 3995 -4071 0
3931 4069 -4071 0
3995 4069 -4071 0
-3932 -3996 -4072 0
3932 3996 -4072 0
-3932 3996 4072 0
3932 -3996 4072 0
-4072 -4071 -4028 0
4072 4071 -4028 0
-4072 4071 4028 0
4072 -4071 4028 0
-3932 -3996 4073 0
-3932 -4071 4073 0
-3996 -4071 4073 0
3932 3996 -4073 0
3932 4071 -4073 0
3996 4071 -4073 0
-3933 -3997 -4074 0
3933 3997 -4074 0
-3933 3997 4074 0
3933 -3997 4074 0
-4074 -4073 -4029 0
4074 4073 -4029 0
-4074 4073 4029 0
4074 -4073 4029 0
-3933 -3997 4075 0
-3933 -4073 4075 0
-3997 -4073 4075 0
3933 3997 -4075 0
3933 4073 -4075 0
3997 4073 -4075 0
-3934 -3998 -4076 0
3934 3998 -4076 0
-3934 3998 4076 0
3934 -3998 4076 0
-4076 -4075 -4030 0
4076 4075 -4030 0
-4076 4075 4030 0
4076 -4075 4030 0
-3934 -3998 4077 0
-3934 -4075 4077 0
-3998 -4075 4077 0
3934 3998 -4077 0
3934 4075 -4077 0
3998 4075 -4077 0
-3935 -3999 -4078 0
3935 3999 -4078 0
-3935 3999 4078 0
3935 -3999 4078 0
-4078 -4077 -4031 0
4078 4077 -4031 0
-4078 4077 4031 0
4078 -4077 4031 0
-3935 -3999 4079 0
-3935 -4077 4079 0
-3999 -4077 4079 0
3935 3999 -4079 0
3935 4077 -4079 0
3999 4077 -4079 0
-3936 -4000 -4080 0
3936 4000 -4080 0
-3936 4000 4080 0
3936 -4000 4080 0
-4080 -4079 -4032 0
4080 4079 -4032 0
-4080 4079 4032 0
4080 -4079 4032 0
-3936 -4000 4081 0
-3936 -4079 4081 0
-4000 -4079 4081 0
3936 4000 -4081 0
3936 4079 -4081 0
4000 4079 -4081 0
-3937 -4001 -4082 0
3937 4001 -4082 0
-3937 4001 4082 0
3937 -4001 4082 0
-4082 -4081 -4033 0
4082 4081 -4033 0
-4082 4081 4033 0
4082 -4081 4033 0
-3937 -4001 4083 0
-3937 -4081 4083 0
-4001 -4081 4083 0
3937 4001 -4083 0
3937 4081 -4083 0
4001 4081 -4083 0
-3938 -4002 -4084 0
3938 4002 -4084 0
-3938 4002 4084 0
3938 -4002 4084 0
-4084 -4083 -4034 0
4084 4083 -4034 0
-4084 4083 4034 0
4084 -4083 4034 0
-3938 -4002 4085 0
-3938 -4083 4085 0
-4002 -4083 4085 0
3938 4002 -4085 0
3938 4083 -4085 0
4002 4083 -4085 0
-3939 -4003 -4086 0
3939 4003 -4086 0
-3939 4003 4086 0
3939 -4003 4086 0
-4086 -4085 -4035 0
4086 4085 -4035 0
-4086 4085 4035 0
4086 -4085 4035 0
-3939 -4003 4087 0
-3939 -4085 4087 0
-4003 -4085 4087 0
3939 4003 -4087 0
3939 4085 -4087 0
4003 4085 -4087 0
-3940 -4004 -4088 0
3940 4004 -4088 0
-3940 4004 4088 0
3940 -4004 4088 0
-4088 -4087 -4036 0
4088 4087 -4036 0
-4088 4087 4036 0
4088 -4087 4036 0
-3940 -4004 4089 0
-3940 -4087 4089 0
-4004 -4087 4089 0
3940 4004 -4089 0
3940 4087 -4089 0
4004 4087 -4089 0
-3941 -4005 -4090 0
3941 4005 -4090 0
-3941 4005 4090 0
3941 -4005 4090 0
-4090 -4089 -4037 0
4090 4089 -4037 0
-4090 4089 4037 0
4090 -4089 4037 0
-3941 -4005 4091 0
-3941 -4089 4091 0
-4005 -4089 4091 0
3941 4005 -4091 0
3941 4089 -4091 0
4005 4089 -4091 0
-3942 -4006 -4092 0
3942 4006 -4092 0
-3942 4006 4092 0
3942 -4006 4092 0
-4092 -4091 -4038 0
4092 4091 -4038 0
-4092 4091 4038 0
4092 -4091 4038 0
-3942 -4006 4093 0
-3942 -4091 4093 0
-4006 -4091 4093 0
3942 4006 -4093 0
3942 4091 -4093 0
4006 4091 -4093 0
-3943 -4007 -4094 0
3943 4007 -4094 0
-3943 4007 4094 0
3943 -4007 4094 0
-4094 -4093 -4039 0
4094 4093 -4039 0
-4094 4093 4039 0
4094 -4093 4039 0
-3943 -4007 4095 0
-3943 -4093 4095 0
-4007 -4093 4095 0
3943 4007 -4095 0
3943 4093 -4095 0
4007 4093 -4095 0
-3944 -4008 -4096 0
3944 4008 -4096 0
-3944 4008 4096 0
3944 -4008 4096 0
-4096 -4095 -4040 0
4096 4095 -4040 0
-4096 4095 4040 0
4096 -4095 4040 0
-3944 -4008 4097 0
-3944 -4095 4097 0
-4008 -4095 4097 0
3944 4008 -4097 0
3944 4095 -4097 0
4008 4095 -4097 0
-3945 -4009 -4098 0
3945 4009 -4098 0
-3945 4009 4098 0
3945 -4009 4098 0
-4098 -4097 -4041 0
4098 4097 -4041 0
-4098 4097 4041 0
4098 -4097 4041 0
-3945 -4009 4099 0
-3945 -4097 4099 0
-4009 -4097 4099 0
3945 4009 -4099 0
3945 4097 -4099 0
4009 4097 -4099 0
-3946 -4010 -4100 0
3946 4010 -4100 0
-3946 4010 4100 0
3946 -4010 4100 0
-4100 -4099 -4042 0
4100 4099 -4042 0
-4100 4099 4042 0
4100 -4099 4042 0
-3946 -4010 4101 0
-3946 -4099 4101 0
-4010 -4099 4101 0
3946 4010 -4101 0
3946 4099 -4101 0
4010 4099 -4101 0
-3947 -4011 -4102 0
3947 4011 -4102 0
-3947 4011 4102 0
3947 -4011 4102 0
-4102 -4101 -4043 0
4102 4101 -4043 0
-4102 4101 4043 0
4102 -4101 4043 0
-3947 -4011 4103 0
-3947 -4101 4103 0
-4011 -4101 4103 0
3947 4011 -4103 0
3947 4101 -4103 0
4011 4101 -4103 0
-3948 -4012 -4104 0
3948 4012 -4104 0
-3948 4012 4104 0
3948 -4012 4104 0
-4104 -4103 -4044 0
4104 4103 -4044 0
-4104 4103 4044 0
4104 -4103 4044 0
-3948 -4012 4105 0
-3948 -4103 4105 0
-4012 -4103 4105 0
3948 4012 -4105 0
3948 4103 -4105 0
4012 4103 -4105 0
-3949 -4013 -4106 0
3949 4013 -4106 0
-3949 4013 4106 0
3949 -4013 4106 0
-4106 -4105 -4045 0
4106 4105 -4045 0
-4106 4105 4045 0
4106 -4105 4045 0
-3949 -4013 4107 0
-3949 -4105 4107 0
-4013 -4105 4107 0
3949 4013 -4107 0
3949 4105 -4107 0
4013 4105 -4107 0
-3950 -4014 -4108 0
3950 4014 -4108 0
-3950 4014 4108 0
3950 -4014 4108 0
-4108 -4107 -4046 0
4108 4107 -4046 0
-4108 4107 4046 0
4108 -4107 4046 0
-513 -3825 -4109 0
513 3825 -4109 0
-513 3825 4109 0
513 -3825 4109 0
-513 -3825 4141 0
513 -4141 0
3825 -4141 0
-514 -3826 -4142 0
514 3826 -4142 0
-514 3826 4142 0
514 -3826 4142 0
-4142 -4141 -4110 0
4142 4141 -4110 0
-4142 4141 4110 0
4142 -4141 4110 0
-514 -3826 4143 0
-514 -4141 4143 0
-3826 -4141 4143 0
514 3826 -4143 0
514 4141 -4143 0
3826 4141 -4143 0
-515 -3827 -4144 0
515 3827 -4144 0
-515 3827 4144 0
515 -3827 4144 0
-4144 -4143 -4111 0
4144 4143 -4111 0
-4144 4143 4111 0
4144 -4143 4111 0
-515 -3827 4145 0
-515 -4143 4145 0
-3827 -4143 4145 0
515 3827 -4145 0
515 4143 -4145 0
3827 4143 -4145 0
-516 -3828 -4146 0
516 3828 -4146 0
-516 3828 4146 0
516 -3828 4146 0
-4146 -4145 -4112 0
4146 4145 -4112 0
-4146 4145 4112 0
4146 -4145 4112 0
-516 -3828 4147 0
-516 -4145 4147 0
-3828 -4145 4147 0
516 3828 -4147 0
516 4145 -4147 0
3828 4145 -4147 0
-517 -3829 -4148 0
517 3829 -4148 0
-517 3829 4148 0
517 -3829 4148 0
-4148 -4147 -4113 0
4148 4147 -4113 0
-4148 4147 4113 0
4148 -4147 4113 0
-517 -3829 4149 0
-517 -4147 4149 0
-3829 -4147 4149 0
517 3829 -4149 0
517 4147 -4149 0
3829 4147 -4149 0
-518 -3830 -4150 0
518 3830 -4150 0
-518 3830 4150 0
518 -3830 4150 0
-4150 -4149 -4114 0
4150 4149 -4114 0
-4150 4149 4114 0
4150 -4149 4114 0
-518 -3830 4151 0
-518 -4149 4151 0
-3830 -4149 4151 0
518 3830 -4151 0
518 4149 -4151 0
3830 4149 -4151 0
-519 -3831 -4152 0
519 3831 -4152 0
-519 3831 4152 0
519 -3831 4152 0
-4152 -4151 -4115 0
4152 4151 -4115 0
-4152 4151 4115 0
4152 -4151 4115 0
-519 -3831 4153 0
-519 -4151 4153 0
-3831 -4151 4153 0
519 3831 -4153 0
519 4151 -4153 0
3831 4151 -4153 0
-520 -3832 -4154 0
520 3832 -4154 0
-520 3832 4154 0
520 -3832 4154 0
-4154 -4153 -4116 0
4154 4153 -4116 0
-4154 4153 4116 0
4154 -4153 4116 0
-520 -3832 4155 0
-520 -4153 4155 0
-3832 -4153 4155 0
520 3832 -4155 0
520 4153 -4155 0
3832 4153 -4155 0
-521 -3833 -4156 0
521 3833 -4156 0
-521 3833 4156 0
521 -3833 4156 0
-4156 -4155 -4117 0
4156 4155 -4117 0
-4156 4155 4117 0
4156 -4155 4117 0
-521 -3833 4157 0
-521 -4155 4157 0
-3833 -4155 4157 0
521 3833 -4157 0
521 4155 -4157 0
3833 4155 -4157 0
-522 -3834 -4158 0
522 3834 -4158 0
-522 3834 4158 0
522 -3834 4158 0
-4158 -4157 -4118 0
4158 4157 -4118 0
-4158 4157 4118 0
4158 -4157 4118 0
-522 -3834 4159 0
-522 -4157 4159 0
-3834 -4157 4159 0
522 3834 -4159 0
522 4157 -4159 0
3834 4157 -4159 0
-523 -3835 -4160 0
523 3835 -4160 0
-523 3835 4160 0
523 -3835 4160 0
-4160 -4159 -4119 0
4160 4159 -4119 0
-4160 4159 4119 0
4160 -4159 4119 0
-523 -3835 4161 0
-523 -4159 4161 0
-3835 -4159 4161 0
523 3835 -4161 0
523 4159 -4161 0
3835 4159 -4161 0
-524 -3836 -4162 0
524 3836 -4162 0
-524 3836 4162 0
524 -3836 4162 0
-4162 -4161 -4120 0
4162 4161 -4120 0
-4162 4161 4120 0
4162 -4161 4120 0
-524 -3836 4163 0
-524 -4161 4163 0
-3836 -4161 4163 0
524 3836 -4163 0
524 4161 -4163 0
3836 4161 -4163 0
-525 -3837 -4164 0
525 3837 -4164 0
-525 3837 4164 0
525 -3837 4164 0
-4164 -4163 -4121 0
4164 4163 -4121 0
-4164 4163 4121 0
4164 -4163 4121 0
-525 -3837 4165 0
-525 -4163 4165 0
-3837 -4163 4165 0
525 3837 -4165 0
525 4163 -4165 0
3837 4163 -4165 0
-526 -3838 -4166 0
526 3838 -4166 0
-526 3838 4166 0
526 -3838 4166 0
-4166 -4165 -4122 0
4166 4165 -4122 0
-4166 4165 4122 0
4166 -4165 4122 0
-526 -3838 4167 0
-526 -4165 4167 0
-3838 -4165 4167 0
526 3838 -4167 0
526 4165 -4167 0
3838 4165 -4167 0
-527 -3839 -4168 0
527 3839 -4168 0
-527 3839 4168 0
527 -3839 4168 0
-4168 -4167 -4123 0
4168 4167 -4123 0
-4168 4167 4123 0
4168 -4167 4123 0
-527 -3839 4169 0
-527 -4167 4169 0
-3839 -4167 4169 0
527 3839 -4169 0
527 4167 -4169 0
3839 4167 -4169 0
-528 -3840 -4170 0
528 3840 -4170 0
-528 3840 4170 0
528 -3840 4170 0
-4170 -4169 -4124 0
4170 4169 -4124 0
-4170 4169 4124 0
4170 -4169 4124 0
-528 -3840 4171 0
-528 -4169 4171 0
-3840 -4169 4171 0
528 3840 -4171 0
528 4169 -4171 0
3840 4169 -4171 0
-529 -3841 -4172 0
529 3841 -4172 0
-529 3841 4172 0
529 -3841 4172 0
-4172 -4171 -4125 0
4172 4171 -4125 0
-4172 4171 4125 0
4172 -4171 4125 0
-529 -3841 4173 0
-529 -4171 4173 0
-3841 -4171 4173 0
529 3841 -4173 0
529 4171 -4173 0
3841 4171 -4173 0
-530 -3842 -4174 0
530 3842 -4174 0
-530 3842 4174 0
530 -3842 4174 0
-4174 -4173 -4126 0
4174 4173 -4126 0
-4174 4173 4126 0
4174 -4173 4126 0
-530 -3842 4175 0
-530 -4173 4175 0
-3842 -4173 4175 0
530 3842 -4175 0
530 4173 -4175 0
3842 4173 -4175 0
-531 -3843 -4176 0
531 3843 -4176 0
-531 3843 4176 0
531 -3843 4176 0
-4176 -4175 -4127 0
4176 4175 -4127 0
-4176 4175 4127 0
4176 -4175 4127 0
-531 -3843 4177 0
-531 -4175 4177 0
-3843 -4175 4177 0
531 3843 -4177 0
531 4175 -4177 0
3843 4175 -4177 0
-532 -3844 -4178 0
532 3844 -4178 0
-532 3844 4178 0
532 -3844 4178 0
-4178 -4177 -4128 0
4178 4177 -4128 0
-4178 4177 4128 0
4178 -4177 4128 0
-532 -3844 4179 0
-532 -4177 4179 0
-3844 -4177 4179 0
532 3844 -4179 0
532 4177 -4179 0
3844 4177 -4179 0
-533 -3845 -4180 0
533 3845 -4180 0
-533 3845 4180 0
533 -3845 4180 0
-4180 -4179 -4129 0
4180 4179 -4129 0
-4180 4179 4129 0
4180 -4179 4129 0
-533 -3845 4181 0
-533 -4179 4181 0
-3845 -4179 4181 0
533 3845 -4181 0
533 4179 -4181 0
3845 4179 -4181 0
-534 -3846 -4182 0
534 3846 -4182 0
-534 3846 4182 0
534 -3846 4182 0
-4182 -4181 -4130 0
4182 4181 -4130 0
-4182 4181 4130 0
4182 -4181 4130 0
-534 -3846 4183 0
-534 -4181 4183 0
-3846 -4181 4183 0
534 3846 -4183 0
534 4181 -4183 0
3846 4181 -4183 0
-535 -3847 -4184 0
535 3847 -4184 0
-535 3847 4184 0
535 -3847 4184 0
-4184 -4183 -4131 0
4184 4183 -4131 0
-4184 4183 4131 0
4184 -4183 4131 0
-535 -3847 4185 0
-535 -4183 4185 0
-3847 -4183 4185 0
535 3847 -4185 0
535 4183 -4185 0
3847 4183 -4185 0
-536 -3848 -4186 0
536 3848 -4186 0
-536 3848 4186 0
536 -3848 4186 0
-4186 -4185 -4132 0
4186 4185 -4132 0
-4186 4185 4132 0
4186 -4185 4132 0
-536 -3848 4187 0
-536 -4185 4187 0
-3848 -4185 4187 0
536 3848 -4187 0
536 4185 -4187 0
3848 4185 -4187 0
-537 -3849 -4188 0
537 3849 -4188 0
-537 3849 4188 0
537 -3849 4188 0
-4188 -4187 -4133 0
4188 4187 -4133 0
-4188 4187 4133 0
4188 -4187 4133 0
-537 -3849 4189 0
-537 -4187 4189 0
-3849 -4187 4189 0
537 3849 -4189 0
537 4187 -4189 0
3849 4187 -4189 0
-538 -3850 -4190 0
538 3850 -4190 0
-538 3850 4190 0
538 -3850 4190 0
-4190 -4189 -4134 0
4190 4189 -4134 0
-4190 4189 4134 0
4190 -4189 4134 0
-538 -3850 4191 0
-538 -4189 4191 0
-3850 -4189 4191 0
538 3850 -4191 0
538 4189 -4191 0
3850 4189 -4191 0
-539 -3851 -4192 0
539 3851 -4192 0
-539 3851 4192 0
539 -3851 4192 0
-4192 -4191 -4135 0
4192 4191 -4135 0
-4192 4191 4135 0
4192 -4191 4135 0
-539 -3851 4193 0
-539 -4191 4193 0
-3851 -4191 4193 0
539 3851 -4193 0
539 4191 -4193 0
3851 4191 -4193 0
-540 -3852 -4194 0
540 3852 -4194 0
-540 3852 4194 0
540 -3852 4194 0
-4194 -4193 -4136 0
4194 4193 -4136 0
-4194 4193 4136 0
4194 -4193 4136 0
-540 -3852 4195 0
-540 -4193 4195 0
-3852 -4193 4195 0
540 3852 -4195 0
540 4193 -4195 0
3852 4193 -4195 0
-541 -3853 -4196 0
541 3853 -4196 0
-541 3853 4196 0
541 -3853 4196 0
-4196 -4195 -4137 0
4196 4195 -4137 0
-4196 4195 4137 0
4196 -4195 4137 0
-541 -3853 4197 0
-541 -4195 4197 0
-3853 -4195 4197 0
541 3853 -4197 0
541 4195 -4197 0
3853 4195 -4197 0
-542 -3854 -4198 0
542 3854 -4198 0
-542 3854 4198 0
542 -3854 4198 0
-4198 -4197 -4138 0
4198 4197 -4138 0
-4198 4197 4138 0
4198 -4197 4138 0
-542 -3854 4199 0
-542 -4197 4199 0
-3854 -4197 4199 0
542 3854 -4199 0
542 4197 -4199 0
3854 4197 -4199 0
-543 -3855 -4200 0
543 3855 -4200 0
-543 3855 4200 0
543 -3855 4200 0
-4200 -4199 -4139 0
4200 4199 -4139 0
-4200 4199 4139 0
4200 -4199 4139 0
-543 -3855 4201 0
-543 -4199 4201 0
-3855 -4199 4201 0
543 3855 -4201 0
543 4199 -4201 0
3855 4199 -4201 0
-544 -3856 -4202 0
544 3856 -4202 0
-544 3856 4202 0
544 -3856 4202 0
-4202 -4201 -4140 0
4202 4201 -4140 0
-4202 4201 4140 0
4202 -4201 4140 0
-3825 -4015 -4203 0
3825 4015 -4203 0
-3825 4015 4203 0
3825 -4015 4203 0
-3825 -4015 4235 0
3825 -4235 0
4015 -4235 0
-3826 -4016 -4236 0
3826 4016 -4236 0
-3826 4016 4236 0
3826 -4016 4236 0
-4236 -4235 -4204 0
4236 4235 -4204 0
-4236 4235 4204 0
4236 -4235 4204 0
-3826 -4016 4237 0
-3826 -4235 4237 0
-4016 -4235 4237 0
3826 4016 -4237 0
3826 4235 -4237 0
4016 4235 -4237 0
-3827 -4017 -4238 0
3827 4017 -4238 0
-3827 4017 4238 0
3827 -4017 4238 0
-4238 -4237 -4205 0
4238 4237 -4205 0
-4238 4237 4205 0
4238 -4237 4205 0
-3827 -4017 4239 0
-3827 -4237 4239 0
-4017 -4237 4239 0
3827 4017 -4239 0
3827 4237 -4239 0
4017 4237 -4239 0
-3828 -4018 -4240 0
3828 4018 -4240 0
-3828 4018 4240 0
3828 -4018 4240 0
-4240 -4239 -4206 0
4240 4239 -4206 0
-4240 4239 4206 0
4240 -4239 4206 0
-3828 -4018 4241 0
-3828 -4239 4241 0
-4018 -4239 4241 0
3828 4018 -4241 0
3828 4239 -4241 0
4018 4239 -4241 0
-3829 -4019 -4242 0
3829 4019 -4242 0
-3829 4019 4242 0
3829 -4019 4242 0
-4242 -4241 -4207 0
4242 4241 -4207 0
-4242 4241 4207 0
4242 -4241 4207 0
-3829 -4019 4243 0
-3829 -4241 4243 0
-4019 -4241 4243 0
3829 4019 -4243 0
3829 4241 -4243 0
4019 4241 -4243 0
-3830 -4020 -4244 0
3830 4020 -4244 0
-3830 4020 4244 0
3830 -4020 4244 0
-4244 -4243 -4208 0
4244 4243 -4208 0
-4244 4243 4208 0
4244 -4243 4208 0
-3830 -4020 4245 0
-3830 -4243 4245 0
-4020 -4243 4245 0
3830 4020 -4245 0
3830 4243 -4245 0
4020 4243 -4245 0
-3831 -4021 -4246 0
3831 4021 -4246 0
-3831 4021 4246 0
3831 -4021 4246 0
-4246 -4245 -4209 0
4246 4245 -4209 0
-4246 4245 4209 0
4246 -4245 4209 0
-3831 -4021 4247 0
-3831 -4245 4247 0
-4021 -4245 4247 0
3831 4021 -4247 0
3831 4245 -4247 0
4021 4245 -4247 0
-3832 -4022 -4248 0
3832 4022 -4248 0
-3832 4022 4248 0
3832 -4022 4248 0
-4248 -4247 -4210 0
4248 4247 -4210 0
-4248 4247 4210 0
4248 -4247 4210 0
-3832 -4022 4249 0
-3832 -4247 4249 0
-4022 -4247 4249 0
3832 4022 -4249 0
3832 4247 -4249 0
4022 4247 -4249 0
-3833 -4023 -4250 0
3833 4023 -4250 0
-3833 4023 4250 0
3833 -4023 4250 0
-4250 -4249 -4211 0
4250 4249 -4211 0
-4250 4249 4211 0
4250 -4249 4211 0
-3833 -4023 4251 0
-3833 -4249 4251 0
-4023 -4249 4251 0
3833 4023 -4251 0
3833 4249 -4251 0
4023 4249 -4251 0
-3834 -4024 -4252 0
3834 4024 -4252 0
-3834 4024 4252 0
3834 -4024 4252 0
-4252 -4251 -4212 0
4252 4251 -4212 0
-4252 4251 4212 0
4252 -4251 4212 0
-3834 -4024 4253 0
-3834 -4251 4253 0
-4024 -4251 4253 0
3834 4024 -4253 0
3834 4251 -4253 0
4024 4251 -4253 0
-3835 -4025 -4254 0
3835 4025 -4254 0
-3835 4025 4254 0
3835 -4025 4254 0
-4254 -4253 -4213 0
4254 4253 -4213 0
-4254 4253 4213 0
4254 -4253 4213 0
-3835 -4025 4255 0
-3835 -4253 4255 0
-4025 -4253 4255 0
3835 4025 -4255 0
3835 4253 -4255 0
4025 4253 -4255 0
-3836 -4026 -4256 0
3836 4026 -4256 0
-3836 4026 4256 0
3836 -4026 4256 0
-4256 -4255 -4214 0
4256 4255 -4214 0
-4256 4255 4214 0
4256 -4255 4214 0
-3836 -4026 4257 0
-3836 -4255 4257 0
-4026 -4255 4257 0
3836 4026 -4257 0
3836 4255 -4257 0
4026 4255 -4257 0
-3837 -4027 -4258 0
3837 4027 -4258 0
-3837 4027 4258 0
3837 -4027 4258 0
-4258 -4257 -4215 0
4258 4257 -4215 0
-4258 4257 4215 0
4258 -4257 4215 0
-3837 -4027 4259 0
-3837 -4257 4259 0
-4027 -4257 4259 0
3837 4027 -4259 0
3837 4257 -4259 0
4027 4257 -4259 0
-3838 -4028 -4260 0
3838 4028 -4260 0
-3838 4028 4260 0
3838 -4028 4260 0
-4260 -4259 -4216 0
4260 4259 -4216 0
-4260 4259 4216 0
4260 -4259 4216 0
-3838 -4028 4261 0
-3838 -4259 4261 0
-4028 -4259 4261 0
3838 4028 -4261 0
3838 4259 -4261 0
4028 4259 -4261 0
-3839 -4029 -4262 0
3839 4029 -4262 0
-3839 4029 4262 0
3839 -4029 4262 0
-4262 -4261 -4217 0
4262 4261 -4217 0
-4262 4261 4217 0
4262 -4261 4217 0
-3839 -4029 4263 0
-3839 -4261 4263 0
-4029 -4261 4263 0
3839 4029 -4263 0
3839 4261 -4263 0
4029 4261 -4263 0
-3840 -4030 -4264 0
3840 4030 -4264 0
-3840 4030 4264 0
3840 -4030 4264 0
-4264 -4263 -4218 0
4264 4263 -4218 0
-4264 4263 4218 0
4264 -4263 4218 0
-3840 -4030 4265 0
-3840 -4263 4265 0
-4030 -4263 4265 0
3840 4030 -4265 0
3840 4263 -4265 0
4030 4263 -4265 0
-3841 -4031 -4266 0
3841 4031 -4266 0
-3841 4031 4266 0
3841 -4031 4266 0
-4266 -4265 -4219 0
4266 4265 -4219 0
-4266 4265 4219 0
4266 -4265 4219 0
-3841 -4031 4267 0
-3841 -4265 4267 0
-4031 -4265 4267 0
3841 4031 -4267 0
3841 4265 -4267 0
4031 4265 -4267 0
-3842 -4032 -4268 0
3842 4032 -4268 0
-3842 4032 4268 0
3842 -4032 4268 0
-4268 -4267 -4220 0
4268 4267 -4220 0
-4268 4267 4220 0
4268 -4267 4220 0
-3842 -4032 4269 0
-3842 -4267 4269 0
-4032 -4267 4269 0
3842 4032 -4269 0
3842 4267 -4269 0
4032 4267 -4269 0
-3843 -4033 -4270 0
3843 4033 -4270 0
-3843 4033 4270 0
3843 -4033 4270 0
-4270 -4269 -4221 0
4270 4269 -4221 0
-4270 4269 4221 0
4270 -4269 4221 0
-3843 -4033 4271 0
-3843 -4269 4271 0
-4033 -4269 4271 0
3843 4033 -4271 0
3843 4269 -4271 0
4033 4269 -4271 0
-3844 -4034 -4272 0
3844 4034 -4272 0
-3844 4034 4272 0
3844 -4034 4272 0
-4272 -4271 -4222 0
4272 4271 -4222 0
-4272 4271 4222 0
4272 -4271 4222 0
-3844 -4034 4273 0
-3844 -4271 4273 0
-4034 -4271 4273 0
3844 4034 -4273 0
3844 4271 -4273 0
4034 4271 -4273 0
-3845 -4035 -4274 0
3845 4035 -4274 0
-3845 4035 4274 0
3845 -4035 4274 0
-4274 -4273 -4223 0
4274 4273 -4223 0
-4274 4273 4223 0
4274 -4273 4223 0
-3845 -4035 4275 0
-3845 -4273 4275 0
-4035 -4273 4275 0
3845 4035 -4275 0
3845 4273 -4275 0
4035 4273 -4275 0
-3846 -4036 -4276 0
3846 4036 -4276 0
-3846 4036 4276 0
3846 -4036 4276 0
-4276 -4275 -4224 0
4276 4275 -4224 0
-4276 4275 4224 0
4276 -4275 4224 0
-3846 -4036 4277 0
-3846 -4275 4277 0
-4036 -4275 4277 0
3846 4036 -4277 0
3846 4275 -4277 0
4036 4275 -4277 0
-3847 -4037 -4278 0
3847 4037 -4278 0
-3847 4037 4278 0
3847 -4037 4278 0
-4278 -4277 -4225 0
4278 4277 -4225 0
-4278 4277 4225 0
4278 -4277 4225 0
-3847 -4037 4279 0
-3847 -4277 4279 0
-4037 -4277 4279 0
3847 4037 -4279 0
3847 4277 -4279 0
4037 4277 -4279 0
-3848 -4038 -4280 0
3848 4038 -4280 0
-3848 4038 4280 0
3848 -4038 4280 0
-4280 -4279 -4226 0
4280 4279 -4226 0
-4280 4279 4226 0
4280 -4279 4226 0
-3848 -4038 4281 0
-3848 -4279 4281 0
-4038 -4279 4281 0
3848 4038 -4281 0
3848 4279 -4281 0
4038 4279 -4281 0
-3849 -4039 -4282 0
3849 4039 -4282 0
-3849 4039 4282 0
3849 -4039 4282 0
-4282 -4281 -4227 0
4282 4281 -4227 0
-4282 4281 4227 0
4282 -4281 4227 0
-3849 -4039 4283 0
-3849 -4281 4283 0
-4039 -4281 4283 0
3849 4039 -4283 0
3849 4281 -4283 0
4039 4281 -4283 0
-3850 -4040 -4284 0
3850 4040 -4284 0
-3850 4040 4284 0
3850 -4040 4284 0
-4284 -4283 -4228 0
4284 4283 -4228 0
-4284 4283 4228 0
4284 -4283 4228 0
-3850 -4040 4285 0
-3850 -4283 4285 0
-4040 -4283 4285 0
3850 4040 -4285 0
3850 4283 -4285 0
4040 4283 -4285 0
-3851 -4041 -4286 0
3851 4041 -4286 0
-3851 4041 4286 0
3851 -4041 4286 0
-4286 -4285 -4229 0
4286 4285 -4229 0
-4286 4285 4229 0
4286 -4285 4229 0
-3851 -4041 4287 0
-3851 -4285 4287 0
-4041 -4285 4287 0
3851 4041 -4287 0
3851 4285 -4287 0
4041 4285 -4287 0
-3852 -4042 -4288 0
3852 4042 -4288 0
-3852 4042 4288 0
3852 -4042 4288 0
-4288 -4287 -4230 0
4288 4287 -4230 0
-4288 4287 4230 0
4288 -4287 4230 0
-3852 -4042 4289 0
-3852 -4287 4289 0
-4042 -4287 4289 0
3852 4042 -4289 0
3852 4287 -4289 0
4042 4287 -4289 0
-3853 -4043 -4290 0
3853 4043 -4290 0
-3853 4043 4290 0
3853 -4043 4290 0
-4290 -4289 -4231 0
4290 4289 -4231 0
-4290 4289 4231 0
4290 -4289 4231 0
-3853 -4043 4291 0
-3853 -4289 4291 0
-4043 -4289 4291 0
3853 4043 -4291 0
3853 4289 -4291 0
4043 4289 -4291 0
-3854 -4044 -4292 0
3854 4044 -4292 0
-3854 4044 4292 0
3854 -4044 4292 0
-4292 -4291 -4232 0
4292 4291 -4232 0
-4292 4291 4232 0
4292 -4291 4232 0
-3854 -4044 4293 0
-3854 -4291 4293 0
-4044 -4291 4293 0
3854 4044 -4293 0
3854 4291 -4293 0
4044 4291 -4293 0
-3855 -4045 -4294 0
3855 4045 -4294 0
-3855 4045 4294 0
3855 -4045 4294 0
-4294 -4293 -4233 0
4294 4293 -4233 0
-4294 4293 4233 0
4294 -4293 4233 0
-3855 -4045 4295 0
-3855 -4293 4295 0
-4045 -4293 4295 0
3855 4045 -4295 0
3855 4293 -4295 0
4045 4293 -4295 0
-3856 -4046 -4296 0
3856 4046 -4296 0
-3856 4046 4296 0
3856 -4046 4296 0
-4296 -4295 -4234 0
4296 4295 -4234 0
-4296 4295 4234 0
4296 -4295 4234 0
-4115 -4120 -4329 0
4115 4120 -4329 0
-4115 4120 4329 0
4115 -4120 4329 0
-4329 -4134 -4297 0
4329 4134 -4297 0
-4329 4134 4297 0
4329 -4134 4297 0
-4116 -4121 -4330 0
4116 4121 -4330 0
-4116 4121 4330 0
4116 -4121 4330 0
-4330 -4135 -4298 0
4330 4135 -4298 0
-4330 4135 4298 0
4330 -4135 4298 0
-4117 -4122 -4331 0
4117 4122 -4331 0
-4117 4122 4331 0
4117 -4122 4331 0
-4331 -4136 -4299 0
4331 4136 -4299 0
-4331 4136 4299 0
4331 -4136 4299 0
-4118 -4123 -4332 0
4118 4123 -4332 0
-4118 4123 4332 0
4118 -4123 4332 0
-4332 -4137 -4300 0
4332 4137 -4300 0
-4332 4137 4300 0
4332 -4137 4300 0
-4119 -4124 -4333 0
4119 4124 -4333 0
-4119 4124 4333 0
4119 -4124 4333 0
-4333 -4138 -4301 0
4333 4138 -4301 0
-4333 4138 4301 0
4333 -4138 4301 0
-4120 -4125 -4334 0
4120 4125 -4334 0
-4120 4125 4334 0
4120 -4125 4334 0
-4334 -4139 -4302 0
4334 4139 -4302 0
-4334 4139 4302 0
4334 -4139 4302 0
-4121 -4126 -4335 0
4121 4126 -4335 0
-4121 4126 4335 0
4121 -4126 4335 0
-4335 -4140 -4303 0
4335 4140 -4303 0
-4335 4140 4303 0
4335 -4140 4303 0
-4122 -4127 -4336 0
4122 4127 -4336 0
-4122 4127 4336 0
4122 -4127 4336 0
-4336 -4109 -4304 0
4336 4109 -4304 0
-4336 4109 4304 0
4336 -4109 4304 0
-4123 -4128 -4337 0
4123 4128 -4337 0
-4123 4128 4337 0
4123 -4128 4337 0
-4337 -4110 -4305 0
4337 4110 -4305 0
-4337 4110 4305 0
4337 -4110 4305 0
-4124 -4129 -4338 0
4124 4129 -4338 0
-4124 4129 4338 0
4124 -4129 4338 0
-4338 -4111 -4306 0
4338 4111 -4306 0
-4338 4111 4306 0
4338 -4111 4306 0
-4125 -4130 -4339 0
4125 4130 -4339 0
-4125 4130 4339 0
4125 -4130 4339 0
-4339 -4112 -4307 0
4339 4112 -4307 0
-4339 4112 4307 0
4339 -4112 4307 0
-4126 -4131 -4340 0
4126 4131 -4340 0
-4126 4131 4340 0
4126 -4131 4340 0
-4340 -4113 -4308 0
4340 4113 -4308 0
-4340 4113 4308 0
4340 -4113 4308 0
-4127 -4132 -4341 0
4127 4132 -4341 0
-4127 4132 4341 0
4127 -4132 4341 0
-4341 -4114 -4309 0
4341 4114 -4309 0
-4341 4114 4309 0
4341 -4114 4309 0
-4128 -4133 -4342 0
4128 4133 -4342 0
-4128 4133 4342 0
4128 -4133 4342 0
-4342 -4115 -4310 0
4342 4115 -4310 0
-4342 4115 4310 0
4342 -4115 4310 0
-4129 -4134 -4343 0
4129 4134 -4343 0
-4129 4134 4343 0
4129 -4134 4343 0
-4343 -4116 -4311 0
4343 4116 -4311 0
-4343 4116 4311 0
4343 -4116 4311 0
-4130 -4135 -4344 0
4130 4135 -4344 0
-4130 4135 4344 0
4130 -4135 4344 0
-4344 -4117 -4312 0
4344 4117 -4312 0
-4344 4117 4312 0
4344 -4117 4312 0
-4131 -4136 -4345 0
4131 4136 -4345 0
-4131 4136 4345 0
4131 -4136 4345 0
-4345 -4118 -4313 0
4345 4118 -4313 0
-4345 4118 4313 0
4345 -4118 4313 0
-4132 -4137 -4346 0
4132 4137 -4346 0
-4132 4137 4346 0
4132 -4137 4346 0
-4346 -4119 -4314 0
4346 4119 -4314 0
-4346 4119 4314 0
4346 -4119 4314 0
-4133 -4138 -4347 0
4133 4138 -4347 0
-4133 4138 4347 0
4133 -4138 4347 0
-4347 -4120 -4315 0
4347 4120 -4315 0
-4347 4120 4315 0
4347 -4120 4315 0
-4134 -4139 -4348 0
4134 4139 -4348 0
-4134 4139 4348 0
4134 -4139 4348 0
-4348 -4121 -4316 0
4348 4121 -4316 0
-4348 4121 4316 0
4348 -4121 4316 0
-4135 -4140 -4349 0
4135 4140 -4349 0
-4135 4140 4349 0
4135 -4140 4349 0
-4349 -4122 -4317 0
4349 4122 -4317 0
-4349 4122 4317 0
4349 -4122 4317 0
-4136 -4109 -4350 0
4136 4109 -4350 0
-4136 4109 4350 0
4136 -4109 4350 0
-4350 -4123 -4318 0
4350 4123 -4318 0
-4350 4123 4318 0
4350 -4123 4318 0
-4137 -4110 -4351 0
4137 4110 -4351 0
-4137 4110 4351 0
4137 -4110 4351 0
-4351 -4124 -4319 0
4351 4124 -4319 0
-4351 4124 4319 0
4351 -4124 4319 0
-4138 -4111 -4352 0
4138 4111 -4352 0
-4138 4111 4352 0
4138 -4111 4352 0
-4352 -4125 -4320 0
4352 4125 -4320 0
-4352 4125 4320 0
4352 -4125 4320 0
-4139 -4112 -4353 0
4139 4112 -4353 0
-4139 4112 4353 0
4139 -4112 4353 0
-4353 -4126 -4321 0
4353 4126 -4321 0
-4353 4126 4321 0
4353 -4126 4321 0
-4140 -4113 -4354 0
4140 4113 -4354 0
-4140 4113 4354 0
4140 -4113 4354 0
-4354 -4127 -4322 0
4354 4127 -4322 0
-4354 4127 4322 0
4354 -4127 4322 0
-4109 -4114 -4355 0
4109 4114 -4355 0
-4109 4114 4355 0
4109 -4114 4355 0
-4355 -4128 -4323 0
4355 4128 -4323 0
-4355 4128 4323 0
4355 -4128 4323 0
-4110 -4115 -4356 0
4110 4115 -4356 0
-4110 4115 4356 0
4110 -4115 4356 0
-4356 -4129 -4324 0
4356 4129 -4324 0
-4356 4129 4324 0
4356 -4129 4324 0
-4111 -4116 -4357 0
4111 4116 -4357 0
-4111 4116 4357 0
4111 -4116 4357 0
-4357 -4130 -4325 0
4357 4130 -4325 0
-4357 4130 4325 0
4357 -4130 4325 0
-4112 -4117 -4358 0
4112 4117 -4358 0
-4112 4117 4358 0
4112 -4117 4358 0
-4358 -4131 -4326 0
4358 4131 -4326 0
-4358 4131 4326 0
4358 -4131 4326 0
-4113 -4118 -4359 0
4113 4118 -4359 0
-4113 4118 4359 0
4113 -4118 4359 0
-4359 -4132 -4327 0
4359 4132 -4327 0
-4359 4132 4327 0
4359 -4132 4327 0
-4114 -4119 -4360 0
4114 4119 -4360 0
-4114 4119 4360 0
4114 -4119 4360 0
-4360 -4133 -4328 0
4360 4133 -4328 0
-4360 4133 4328 0
4360 -4133 4328 0
-4109 -3227 4361 0
-4109 3227 -4361 0
4109 -2345 4361 0
4109 2345 -4361 0
-4110 -3228 4362 0
-4110 3228 -4362 0
4110 -2346 4362 0
4110 2346 -4362 0
-4111 -3229 4363 0
-4111 3229 -4363 0
4111 -2347 4363 0
4111 2347 -4363 0
-4112 -3230 4364 0
-4112 3230 -4364 0
4112 -2348 4364 0
4112 2348 -4364 0
-4113 -3231 4365 0
-4113 3231 -4365 0
4113 -2349 4365 0
4113 2349 -4365 0
-4114 -3232 4366 0
-4114 3232 -4366 0
4114 -2350 4366 0
4114 2350 -4366 0
-4115 -3233 4367 0
-4115 3233 -4367 0
4115 -2351 4367 0
4115 2351 -4367 0
-4116 -3234 4368 0
-4116 3234 -4368 0
4116 -2352 4368 0
4116 2352 -4368 0
-4117 -3235 4369 0
-4117 3235 -4369 0
4117 -2353 4369 0
4117 2353 -4369 0
-4118 -3236 4370 0
-4118 3236 -4370 0
4118 -2354 4370 0
4118 2354 -4370 0
-4119 -3237 4371 0
-4119 3237 -4371 0
4119 -2355 4371 0
4119 2355 -4371 0
-4120 -3238 4372 0
-4120 3238 -4372 0
4120 -2356 4372 0
4120 2356 -4372 0
-4121 -3239 4373 0
-4121 3239 -4373 0
4121 -2357 4373 0
4121 2357 -4373 0
-4122 -3240 4374 0
-4122 3240 -4374 0
4122 -2358 4374 0
4122 2358 -4374 0
-4123 -3241 4375 0
-4123 3241 -4375 0
4123 -2359 4375 0
4123 2359 -4375 0
-4124 -3242 4376 0
-4124 3242 -4376 0
4124 -2360 4376 0
4124 2360 -4376 0
-4125 -3243 4377 0
-4125 3243 -4377 0
4125 -2361 4377 0
4125 2361 -4377 0
-4126 -3244 4378 0
-4126 3244 -4378 0
4126 -2362 4378 0
4126 2362 -4378 0
-4127 -3245 4379 0
-4127 3245 -4379 0
4127 -2363 4379 0
4127 2363 -4379 0
-4128 -3246 4380 0
-4128 3246 -4380 0
4128 -2364 4380 0
4128 2364 -4380 0
-4129 -3247 4381 0
-4129 3247 -4381 0
4129 -2365 4381 0
4129 2365 -4381 0
-4130 -3248 4382 0
-4130 3248 -4382 0
4130 -2366 4382 0
4130 2366 -4382 0
-4131 -3249 4383 0
-4131 3249 -4383 0
4131 -2367 4383 0
4131 2367 -4383 0
-4132 -3250 4384 0
-4132 3250 -4384 0
4132 -2368 4384 0
4132 2368 -4384 0
-4133 -3251 4385 0
-4133 3251 -4385 0
4133 -2369 4385 0
4133 2369 -4385 0
-4134 -3252 4386 0
-4134 3252 -4386 0
4134 -2370 4386 0
4134 2370 -4386 0
-4135 -3253 4387 0
-4135 3253 -4387 0
4135 -2371 4387 0
4135 2371 -4387 0
-4136 -3254 4388 0
-4136 3254 -4388 0
4136 -2372 4388 0
4136 2372 -4388 0
-4137 -3255 4389 0
-4137 3255 -4389 0
4137 -2373 4389 0
4137 2373 -4389 0
-4138 -3256 4390 0
-4138 3256 -4390 0
4138 -2374 4390 0
4138 2374 -4390 0
-4139 -3257 4391 0
-4139 3257 -4391 0
4139 -2375 4391 0
4139 2375 -4391 0
-4140 -3258 4392 0
-4140 3258 -4392 0
4140 -2376 4392 0
4140 2376 -4392 0
-1463 -4297 -4393 0
1463 4297 -4393 0
-1463 4297 4393 0
1463 -4297 4393 0
-1463 -4297 4425 0
1463 -4425 0
4297 -4425 0
-1464 -4298 -4426 0
1464 4298 -4426 0
-1464 4298 4426 0
1464 -4298 4426 0
-4426 -4425 -4394 0
4426 4425 -4394 0
-4426 4425 4394 0
4426 -4425 4394 0
-1464 -4298 4427 0
-1464 -4425 4427 0
-4298 -4425 4427 0
1464 4298 -4427 0
1464 4425 -4427 0
4298 4425 -4427 0
-1465 -4299 -4428 0
1465 4299 -4428 0
-1465 4299 4428 0
1465 -4299 4428 0
-4428 -4427 -4395 0
4428 4427 -4395 0
-4428 4427 4395 0
4428 -4427 4395 0
-1465 -4299 4429 0
-1465 -4427 4429 0
-4299 -4427 4429 0
1465 4299 -4429 0
1465 4427 -4429 0
4299 4427 -4429 0
-1466 -4300 -4430 0
1466 4300 -4430 0
-1466 4300 4430 0
1466 -4300 4430 0
-4430 -4429 -4396 0
4430 4429 -4396 0
-4430 4429 4396 0
4430 -4429 4396 0
-1466 -4300 4431 0
-1466 -4429 4431 0
-4300 -4429 4431 0
1466 4300 -4431 0
1466 4429 -4431 0
4300 4429 -4431 0
-1467 -4301 -4432 0
1467 4301 -4432 0
-1467 4301 4432 0
1467 -4301 4432 0
-4432 -4431 -4397 0
4432 4431 -4397 0
-4432 4431 4397 0
4432 -4431 4397 0
-1467 -4301 4433 0
-1467 -4431 4433 0
-4301 -4431 4433 0
1467 4301 -4433 0
1467 4431 -4433 0
4301 4431 -4433 0
-1468 -4302 -4434 0
1468 4302 -4434 0
-1468 4302 4434 0
1468 -4302 4434 0
-4434 -4433 -4398 0
4434 4433 -4398 0
-4434 4433 4398 0
4434 -4433 4398 0
-1468 -4302 4435 0
-1468 -4433 4435 0
-4302 -4433 4435 0
1468 4302 -4435 0
1468 4433 -4435 0
4302 4433 -4435 0
-1469 -4303 -4436 0
1469 4303 -4436 0
-1469 4303 4436 0
1469 -4303 4436 0
-4436 -4435 -4399 0
4436 4435 -4399 0
-4436 4435 4399 0
4436 -4435 4399 0
-1469 -4303 4437 0
-1469 -4435 4437 0
-4303 -4435 4437 0
1469 4303 -4437 0
1469 4435 -4437 0
4303 4435 -4437 0
-1470 -4304 -4438 0
1470 4304 -4438 0
-1470 4304 4438 0
1470 -4304 4438 0
-4438 -4437 -4400 0
4438 4437 -4400 0
-4438 4437 4400 0
4438 -4437 4400 0
-1470 -4304 4439 0
-1470 -4437 4439 0
-4304 -4437 4439 0
1470 4304 -4439 0
1470 4437 -4439 0
4304 4437 -4439 0
-1471 -4305 -4440 0
1471 4305 -4440 0
-1471 4305 4440 0
1471 -4305 4440 0
-4440 -4439 -4401 0
4440 4439 -4401 0
-4440 4439 4401 0
4440 -4439 4401 0
-1471 -4305 4441 0
-1471 -4439 4441 0
-4305 -4439 4441 0
1471 4305 -4441 0
1471 4439 -4441 0
4305 4439 -4441 0
-1472 -4306 -4442 0
1472 4306 -4442 0
-1472 4306 4442 0
1472 -4306 4442 0
-4442 -4441 -4402 0
4442 4441 -4402 0
-4442 4441 4402 0
4442 -4441 4402 0
-1472 -4306 4443 0
-1472 -4441 4443 0
-4306 -4441 4443 0
1472 4306 -4443 0
1472 4441 -4443 0
4306 4441 -4443 0
-1473 -4307 -4444 0
1473 4307 -4444 0
-1473 4307 4444 0
1473 -4307 4444 0
-4444 -4443 -4403 0
4444 4443 -4403 0
-4444 4443 4403 0
4444 -4443 4403 0
-1473 -4307 4445 0
-1473 -4443 4445 0
-4307 -4443 4445 0
1473 4307 -4445 0
1473 4443 -4445 0
4307 4443 -4445 0
-1474 -4308 -4446 0
1474 4308 -4446 0
-1474 4308 4446 0
1474 -4308 4446 0
-4446 -4445 -4404 0
4446 4445 -4404 0
-4446 4445 4404 0
4446 -4445 4404 0
-1474 -4308 4447 0
-1474 -4445 4447 0
-4308 -4445 4447 0
1474 4308 -4447 0
1474 4445 -4447 0
4308 4445 -4447 0
-1475 -4309 -4448 0
1475 4309 -4448 0
-1475 4309 4448 0
1475 -4309 4448 0
-4448 -4447 -4405 0
4448 4447 -4405 0
-4448 4447 4405 0
4448 -4447 4405 0
-1475 -4309 4449 0
-1475 -4447 4449 0
-4309 -4447 4449 0
1475 4309 -4449 0
1475 4447 -4449 0
4309 4447 -4449 0
-1476 -4310 -4450 0
1476 4310 -4450 0
-1476 4310 4450 0
1476 -4310 4450 0
-4450 -4449 -4406 0
4450 4449 -4406 0
-4450 4449 4406 0
4450 -4449 4406 0
-1476 -4310 4451 0
-1476 -4449 4451 0
-4310 -4449 4451 0
1476 4310 -4451 0
1476 4449 -4451 0
4310 4449 -4451 0
-1477 -4311 -4452 0
1477 4311 -4452 0
-1477 4311 4452 0
1477 -4311 4452 0
-4452 -4451 -4407 0
4452 4451 -4407 0
-4452 4451 4407 0
4452 -4451 4407 0
-1477 -4311 4453 0
-1477 -4451 4453 0
-4311 -4451 4453 0
1477 4311 -4453 0
1477 4451 -4453 0
4311 4451 -4453 0
-1478 -4312 -4454 0
1478 4312 -4454 0
-1478 4312 4454 0
1478 -4312 4454 0
-4454 -4453 -4408 0
4454 4453 -4408 0
-4454 4453 4408 0
4454 -4453 4408 0
-1478 -4312 4455 0
-1478 -4453 4455 0
-4312 -4453 4455 0
1478 4312 -4455 0
1478 4453 -4455 0
4312 4453 -4455 0
-1479 -4313 -4456 0
1479 4313 -4456 0
-1479 4313 4456 0
1479 -4313 4456 0
-4456 -4455 -4409 0
4456 4455 -4409 0
-4456 4455 4409 0
4456 -4455 4409 0
-1479 -4313 4457 0
-1479 -4455 4457 0
-4313 -4455 4457 0
1479 4313 -4457 0
1479 4455 -4457 0
4313 4455 -4457 0
-1480 -4314 -4458 0
1480 4314 -4458 0
-1480 4314 4458 0
1480 -4314 4458 0
-4458 -4457 -4410 0
4458 4457 -4410 0
-4458 4457 4410 0
4458 -4457 4410 0
-1480 -4314 4459 0
-1480 -4457 4459 0
-4314 -4457 4459 0
1480 4314 -4459 0
1480 4457 -4459 0
4314 4457 -4459 0
-1481 -4315 -4460 0
1481 4315 -4460 0
-1481 4315 4460 0
1481 -4315 4460 0
-4460 -4459 -4411 0
4460 4459 -4411 0
-4460 4459 4411 0
4460 -4459 4411 0
-1481 -4315 4461 0
-1481 -4459 4461 0
-4315 -4459 4461 0
1481 4315 -4461 0
1481 4459 -4461 0
4315 4459 -4461 0
-1482 -4316 -4462 0
1482 4316 -4462 0
-1482 4316 4462 0
1482 -4316 4462 0
-4462 -4461 -4412 0
4462 4461 -4412 0
-4462 4461 4412 0
4462 -4461 4412 0
-1482 -4316 4463 0
-1482 -4461 4463 0
-4316 -4461 4463 0
1482 4316 -4463 0
1482 4461 -4463 0
4316 4461 -4463 0
-1483 -4317 -4464 0
1483 4317 -4464 0
-1483 4317 4464 0
1483 -4317 4464 0
-4464 -4463 -4413 0
4464 4463 -4413 0
-4464 4463 4413 0
4464 -4463 4413 0
-1483 -4317 4465 0
-1483 -4463 4465 0
-4317 -4463 4465 0
1483 4317 -4465 0
1483 4463 -4465 0
4317 4463 -4465 0
-1484 -4318 -4466 0
1484 4318 -4466 0
-1484 4318 4466 0
1484 -4318 4466 0
-4466 -4465 -4414 0
4466 4465 -4414 0
-4466 4465 4414 0
4466 -4465 4414 0
-1484 -4318 4467 0
-1484 -4465 4467 0
-4318 -4465 4467 0
1484 4318 -4467 0
1484 4465 -4467 0
4318 4465 -4467 0
-1485 -4319 -4468 0
1485 4319 -4468 0
-1485 4319 4468 0
1485 -4319 4468 0
-4468 -4467 -4415 0
4468 4467 -4415 0
-4468 4467 4415 0
4468 -4467 4415 0
-1485 -4319 4469 0
-1485 -4467 4469 0
-4319 -4467 4469 0
1485 4319 -4469 0
1485 4467 -4469 0
4319 4467 -4469 0
-1486 -4320 -4470 0
1486 4320 -4470 0
-1486 4320 4470 0
1486 -4320 4470 0
-4470 -4469 -4416 0
4470 4469 -4416 0
-4470 4469 4416 0
4470 -4469 4416 0
-1486 -4320 4471 0
-1486 -4469 4471 0
-4320 -4469 4471 0
1486 4320 -4471 0
1486 4469 -4471 0
4320 4469 -4471 0
-1487 -4321 -4472 0
1487 4321 -4472 0
-1487 4321 4472 0
1487 -4321 4472 0
-4472 -4471 -4417 0
4472 4471 -4417 0
-4472 4471 4417 0
4472 -4471 4417 0
-1487 -4321 4473 0
-1487 -4471 4473 0
-4321 -4471 4473 0
1487 4321 -4473 0
1487 4471 -4473 0
4321 4471 -4473 0
-1488 -4322 -4474 0
1488 4322 -4474 0
-1488 4322 4474 0
1488 -4322 4474 0
-4474 -4473 -4418 0
4474 4473 -4418 0
-4474 4473 4418 0
4474 -4473 4418 0
-1488 -4322 4475 0
-1488 -4473 4475 0
-4322 -4473 4475 0
1488 4322 -4475 0
1488 4473 -4475 0
4322 4473 -4475 0
-1489 -4323 -4476 0
1489 4323 -4476 0
-1489 4323 4476 0
1489 -4323 4476 0
-4476 -4475 -4419 0
4476 4475 -4419 0
-4476 4475 4419 0
4476 -4475 4419 0
-1489 -4323 4477 0
-1489 -4475 4477 0
-4323 -4475 4477 0
1489 4323 -4477 0
1489 4475 -4477 0
4323 4475 -4477 0
-1490 -4324 -4478 0
1490 4324 -4478 0
-1490 4324 4478 0
1490 -4324 4478 0
-4478 -4477 -4420 0
4478 4477 -4420 0
-4478 4477 4420 0
4478 -4477 4420 0
-1490 -4324 4479 0
-1490 -4477 4479 0
-4324 -4477 4479 0
1490 4324 -4479 0
1490 4477 -4479 0
4324 4477 -4479 0
-1491 -4325 -4480 0
1491 4325 -4480 0
-1491 4325 4480 0
1491 -4325 4480 0
-4480 -4479 -4421 0
4480 4479 -4421 0
-4480 4479 4421 0
4480 -4479 4421 0
-1491 -4325 4481 0
-1491 -4479 4481 0
-4325 -4479 4481 0
1491 4325 -4481 0
1491 4479 -4481 0
4325 4479 -4481 0
-1492 -4326 -4482 0
1492 4326 -4482 0
-1492 4326 4482 0
1492 -4326 4482 0
-4482 -4481 -4422 0
4482 4481 -4422 0
-4482 4481 4422 0
4482 -4481 4422 0
-1492 -4326 4483 0
-1492 -4481 4483 0
-4326 -4481 4483 0
1492 4326 -4483 0
1492 4481 -4483 0
4326 4481 -4483 0
-1493 -4327 -4484 0
1493 4327 -4484 0
-1493 4327 4484 0
1493 -4327 4484 0
-4484 -4483 -4423 0
4484 4483 -4423 0
-4484 4483 4423 0
4484 -4483 4423 0
-1493 -4327 4485 0
-1493 -4483 4485 0
-4327 -4483 4485 0
1493 4327 -4485 0
1493 4483 -4485 0
4327 4483 -4485 0
-1494 -4328 -4486 0
1494 4328 -4486 0
-1494 4328 4486 0
1494 -4328 4486 0
-4486 -4485 -4424 0
4486 4485 -4424 0
-4486 4485 4424 0
4486 -4485 4424 0
-4361 -129 -4487 0
4361 129 -4487 0
-4361 129 4487 0
4361 -129 4487 0
-4361 -129 4519 0
4361 -4519 0
129 -4519 0
-4362 -130 -4520 0
4362 130 -4520 0
-4362 130 4520 0
4362 -130 4520 0
-4520 -4519 -4488 0
4520 4519 -4488 0
-4520 4519 4488 0
4520 -4519 4488 0
-4362 -130 4521 0
-4362 -4519 4521 0
-130 -4519 4521 0
4362 130 -4521 0
4362 4519 -4521 0
130 4519 -4521 0
-4363 -131 -4522 0
4363 131 -4522 0
-4363 131 4522 0
4363 -131 4522 0
-4522 -4521 -4489 0
4522 4521 -4489 0
-4522 4521 4489 0
4522 -4521 4489 0
-4363 -131 4523 0
-4363 -4521 4523 0
-131 -4521 4523 0
4363 131 -4523 0
4363 4521 -4523 0
131 4521 -4523 0
-4364 -132 -4524 0
4364 132 -4524 0
-4364 132 4524 0
4364 -132 4524 0
-4524 -4523 -4490 0
4524 4523 -4490 0
-4524 4523 4490 0
4524 -4523 4490 0
-4364 -132 4525 0
-4364 -4523 4525 0
-132 -4523 4525 0
4364 132 -4525 0
4364 4523 -4525 0
132 4523 -4525 0
-4365 -133 -4526 0
4365 133 -4526 0
-4365 133 4526 0
4365 -133 4526 0
-4526 -4525 -4491 0
4526 4525 -4491 0
-4526 4525 4491 0
4526 -4525 4491 0
-4365 -133 4527 0
-4365 -4525 4527 0
-133 -4525 4527 0
4365 133 -4527 0
4365 4525 -4527 0
133 4525 -4527 0
-4366 -134 -4528 0
4366 134 -4528 0
-4366 134 4528 0
4366 -134 4528 0
-4528 -4527 -4492 0
4528 4527 -4492 0
-4528 4527 4492 0
4528 -4527 4492 0
-4366 -134 4529 0
-4366 -4527 4529 0
-134 -4527 4529 0
4366 134 -4529 0
4366 4527 -4529 0
134 4527 -4529 0
-4367 -135 -4530 0
4367 135 -4530 0
-4367 135 4530 0
4367 -135 4530 0
-4530 -4529 -4493 0
4530 4529 -4493 0
-4530 4529 4493 0
4530 -4529 4493 0
-4367 -135 4531 0
-4367 -4529 4531 0
-135 -4529 4531 0
4367 135 -4531 0
4367 4529 -4531 0
135 4529 -4531 0
-4368 -136 -4532 0
4368 136 -4532 0
-4368 136 4532 0
4368 -136 4532 0
-4532 -4531 -4494 0
4532 4531 -4494 0
-4532 4531 4494 0
4532 -4531 4494 0
-4368 -136 4533 0
-4368 -4531 4533 0
-136 -4531 4533 0
4368 136 -4533 0
4368 4531 -4533 0
136 4531 -4533 0
-4369 -137 -4534 0
4369 137 -4534 0
-4369 137 4534 0
4369 -137 4534 0
-4534 -4533 -4495 0
4534 4533 -4495 0
-4534 4533 4495 0
4534 -4533 4495 0
-4369 -137 4535 0
-4369 -4533 4535 0
-137 -4533 4535 0
4369 137 -4535 0
4369 4533 -4535 0
137 4533 -4535 0
-4370 -138 -4536 0
4370 138 -4536 0
-4370 138 4536 0
4370 -138 4536 0
-4536 -4535 -4496 0
4536 4535 -4496 0
-4536 4535 4496 0
4536 -4535 4496 0
-4370 -138 4537 0
-4370 -4535 4537 0
-138 -4535 4537 0
4370 138 -4537 0
4370 4535 -4537 0
138 4535 -4537 0
-4371 -139 -4538 0
4371 139 -4538 0
-4371 139 4538 0
4371 -139 4538 0
-4538 -4537 -4497 0
4538 4537 -4497 0
-4538 4537 4497 0
4538 -4537 4497 0
-4371 -139 4539 0
-4371 -4537 4539 0
-139 -4537 4539 0
4371 139 -4539 0
4371 4537 -4539 0
139 4537 -4539 0
-4372 -140 -4540 0
4372 140 -4540 0
-4372 140 4540 0
4372 -140 4540 0
-4540 -4539 -4498 0
4540 4539 -4498 0
-4540 4539 4498 0
4540 -4539 4498 0
-4372 -140 4541 0
-4372 -4539 4541 0
-140 -4539 4541 0
4372 140 -4541 0
4372 4539 -4541 0
140 4539 -4541 0
-4373 -141 -4542 0
4373 141 -4542 0
-4373 141 4542 0
4373 -141 4542 0
-4542 -4541 -4499 0
4542 4541 -4499 0
-4542 4541 4499 0
4542 -4541 4499 0
-4373 -141 4543 0
-4373 -4541 4543 0
-141 -4541 4543 0
4373 141 -4543 0
4373 4541 -4543 0
141 4541 -4543 0
-4374 -142 -4544 0
4374 142 -4544 0
-4374 142 4544 0
4374 -142 4544 0
-4544 -4543 -4500 0
4544 4543 -4500 0
-4544 4543 4500 0
4544 -4543 4500 0
-4374 -142 4545 0
-4374 -4543 4545 0
-142 -4543 4545 0
4374 142 -4545 0
4374 4543 -4545 0
142 4543 -4545 0
-4375 -143 -4546 0
4375 143 -4546 0
-4375 143 4546 0
4375 -143 4546 0
-4546 -4545 -4501 0
4546 4545 -4501 0
-4546 4545 4501 0
4546 -4545 4501 0
-4375 -143 4547 0
-4375 -4545 4547 0
-143 -4545 4547 0
4375 143 -4547 0
4375 4545 -4547 0
143 4545 -4547 0
-4376 -144 -4548 0
4376 144 -4548 0
-4376 144 4548 0
4376 -144 4548 0
-4548 -4547 -4502 0
4548 4547 -4502 0
-4548 4547 4502 0
4548 -4547 4502 0
-4376 -144 4549 0
-4376 -4547 4549 0
-144 -4547 4549 0
4376 144 -4549 0
4376 4547 -4549 0
144 4547 -4549 0
-4377 -145 -4550 0
4377 145 -4550 0
-4377 145 4550 0
4377 -145 4550 0
-4550 -4549 -4503 0
4550 4549 -4503 0
-4550 4549 4503 0
4550 -4549 4503 0
-4377 -145 4551 0
-4377 -4549 4551 0
-145 -4549 4551 0
4377 145 -4551 0
4377 4549 -4551 0
145 4549 -4551 0
-4378 -146 -4552 0
4378 146 -4552 0
-4378 146 4552 0
4378 -146 4552 0
-4552 -4551 -4504 0
4552 4551 -4504 0
-4552 4551 4504 0
4552 -4551 4504 0
-4378 -146 4553 0
-4378 -4551 4553 0
-146 -4551 4553 0
4378 146 -4553 0
4378 4551 -4553 0
146 4551 -4553 0
-4379 -147 -4554 0
4379 147 -4554 0
-4379 147 4554 0
4379 -147 4554 0
-4554 -4553 -4505 0
4554 4553 -4505 0
-4554 4553 4505 0
4554 -4553 4505 0
-4379 -147 4555 0
-4379 -4553 4555 0
-147 -4553 4555 0
4379 147 -4555 0
4379 4553 -4555 0
147 4553 -4555 0
-4380 -148 -4556 0
4380 148 -4556 0
-4380 148 4556 0
4380 -148 4556 0
-4556 -4555 -4506 0
4556 4555 -4506 0
-4556 4555 4506 0
4556 -4555 4506 0
-4380 -148 4557 0
-4380 -4555 4557 0
-148 -4555 4557 0
4380 148 -4557 0
4380 4555 -4557 0
148 4555 -4557 0
-4381 -149 -4558 0
4381 149 -4558 0
-4381 149 4558 0
4381 -149 4558 0
-4558 -4557 -4507 0
4558 4557 -4507 0
-4558 4557 4507 0
4558 -4557 4507 0
-4381 -149 4559 0
-4381 -4557 4559 0
-149 -4557 4559 0
4381 149 -4559 0
4381 4557 -4559 0
149 4557 -4559 0
-4382 -150 -4560 0
4382 150 -4560 0
-4382 150 4560 0
4382 -150 4560 0
-4560 -4559 -4508 0
4560 4559 -4508 0
-4560 4559 4508 0
4560 -4559 4508 0
-4382 -150 4561 0
-4382 -4559 4561 0
-150 -4559 4561 0
4382 150 -4561 0
4382 4559 -4561 0
150 4559 -4561 0
-4383 -151 -4562 0
4383 151 -4562 0
-4383 151 4562 0
4383 -151 4562 0
-4562 -4561 -4509 0
4562 4561 -4509 0
-4562 4561 4509 0
4562 -4561 4509 0
-4383 -151 4563 0
-4383 -4561 4563 0
-151 -4561 4563 0
4383 151 -4563 0
4383 4561 -4563 0
151 4561 -4563 0
-4384 -152 -4564 0
4384 152 -4564 0
-4384 152 4564 0
4384 -152 4564 0
-4564 -4563 -4510 0
4564 4563 -4510 0
-4564 4563 4510 0
4564 -4563 4510 0
-4384 -152 4565 0
-4384 -4563 4565 0
-152 -4563 4565 0
4384 152 -4565 0
4384 4563 -4565 0
152 4563 -4565 0
-4385 -153 -4566 0
4385 153 -4566 0
-4385 153 4566 0
4385 -153 4566 0
-4566 -4565 -4511 0
4566 4565 -4511 0
-4566 4565 4511 0
4566 -4565 4511 0
-4385 -153 4567 0
-4385 -4565 4567 0
-153 -4565 4567 0
4385 153 -4567 0
4385 4565 -4567 0
153 4565 -4567 0
-4386 -154 -4568 0
4386 154 -4568 0
-4386 154 4568 0
4386 -154 4568 0
-4568 -4567 -4512 0
4568 4567 -4512 0
-4568 4567 4512 0
4568 -4567 4512 0
-4386 -154 4569 0
-4386 -4567 4569 0
-154 -4567 4569 0
4386 154 -4569 0
4386 4567 -4569 0
154 4567 -4569 0
-4387 -155 -4570 0
4387 155 -4570 0
-4387 155 4570 0
4387 -155 4570 0
-4570 -4569 -4513 0
4570 4569 -4513 0
-4570 4569 4513 0
4570 -4569 4513 0
-4387 -155 4571 0
-4387 -4569 4571 0
-155 -4569 4571 0
4387 155 -4571 0
4387 4569 -4571 0
155 4569 -4571 0
-4388 -156 -4572 0
4388 156 -4572 0
-4388 156 4572 0
4388 -156 4572 0
-4572 -4571 -4514 0
4572 4571 -4514 0
-4572 4571 4514 0
4572 -4571 4514 0
-4388 -156 4573 0
-4388 -4571 4573 0
-156 -4571 4573 0
4388 156 -4573 0
4388 4571 -4573 0
156 4571 -4573 0
-4389 -157 -4574 0
4389 157 -4574 0
-4389 157 4574 0
4389 -157 4574 0
-4574 -4573 -4515 0
4574 4573 -4515 0
-4574 4573 4515 0
4574 -4573 4515 0
-4389 -157 4575 0
-4389 -4573 4575 0
-157 -4573 4575 0
4389 157 -4575 0
4389 4573 -4575 0
157 4573 -4575 0
-4390 -158 -4576 0
4390 158 -4576 0
-4390 158 4576 0
4390 -158 4576 0
-4576 -4575 -4516 0
4576 4575 -4516 0
-4576 4575 4516 0
4576 -4575 4516 0
-4390 -158 4577 0
-4390 -4575 4577 0
-158 -4575 4577 0
4390 158 -4577 0
4390 4575 -4577 0
158 4575 -4577 0
-4391 -159 -4578 0
4391 159 -4578 0
-4391 159 4578 0
4391 -159 4578 0
-4578 -4577 -4517 0
4578 4577 -4517 0
-4578 4577 4517 0
4578 -4577 4517 0
-4391 -159 4579 0
-4391 -4577 4579 0
-159 -4577 4579 0
4391 159 -4579 0
4391 4577 -4579 0
159 4577 -4579 0
-4392 -160 -4580 0
4392 160 -4580 0
-4392 160 4580 0
4392 -160 4580 0
-4580 -4579 -4518 0
4580 4579 -4518 0
-4580 4579 4518 0
4580 -4579 4518 0
4581 0
4582 0
-4583 0
4584 0
4585 0
-4586 0
4587 0
-4588 0
-4589 0
4590 0
-4591 0
-4592 0
-4593 0
-4594 0
4595 0
4596 0
-4597 0
4598 0
4599 0
-4600 0
4601 0
-4602 0
4603 0
-4604 0
4605 0
-4606 0
-4607 0
4608 0
4609 0
4610 0
-4611 0
-4612 0
-4393 -4581 -4613 0
4393 4581 -4613 0
-4393 4581 4613 0
4393 -4581 4613 0
-4393 -4581 4645 0
4393 -4645 0
4581 -4645 0
-4394 -4582 -4646 0
4394 4582 -4646 0
-4394 4582 4646 0
4394 -4582 4646 0
-4646 -4645 -4614 0
4646 4645 -4614 0
-4646 4645 4614 0
4646 -4645 4614 0
-4394 -4582 4647 0
-4394 -4645 4647 0
-4582 -4645 4647 0
4394 4582 -4647 0
4394 4645 -4647 0
4582 4645 -4647 0
-4395 -4583 -4648 0
4395 4583 -4648 0
-4395 4583 4648 0
4395 -4583 4648 0
-4648 -4647 -4615 0
4648 4647 -4615 0
-4648 4647 4615 0
4648 -4647 4615 0
-4395 -4583 4649 0
-4395 -4647 4649 0
-4583 -4647 4649 0
4395 4583 -4649 0
4395 4647 -4649 0
4583 4647 -4649 0
-4396 -4584 -4650 0
4396 4584 -4650 0
-4396 4584 4650 0
4396 -4584 4650 0
-4650 -4649 -4616 0
4650 4649 -4616 0
-4650 4649 4616 0
4650 -4649 4616 0
-4396 -4584 4651 0
-4396 -4649 4651 0
-4584 -4649 4651 0
4396 4584 -4651 0
4396 4649 -4651 0
4584 4649 -4651 0
-4397 -4585 -4652 0
4397 4585 -4652 0
-4397 4585 4652 0
4397 -4585 4652 0
-4652 -4651 -4617 0
4652 4651 -4617 0
-4652 4651 4617 0
4652 -4651 4617 0
-4397 -4585 4653 0
-4397 -4651 4653 0
-4585 -4651 4653 0
4397 4585 -4653 0
4397 4651 -4653 0
4585 4651 -4653 0
-4398 -4586 -4654 0
4398 4586 -4654 0
-4398 4586 4654 0
4398 -4586 4654 0
-4654 -4653 -4618 0
4654 4653 -4618 0
-4654 4653 4618 0
4654 -4653 4618 0
-4398 -4586 4655 0
-4398 -4653 4655 0
-4586 -4653 4655 0
4398 4586 -4655 0
4398 4653 -4655 0
4586 4653 -4655 0
-4399 -4587 -4656 0
4399 4587 -4656 0
-4399 4587 4656 0
4399 -4587 4656 0
-4656 -4655 -4619 0
4656 4655 -4619 0
-4656 4655 4619 0
4656 -4655 4619 0
-4399 -4587 4657 0
-4399 -4655 4657 0
-4587 -4655 4657 0
4399 4587 -4657 0
4399 4655 -4657 0
4587 4655 -4657 0
-4400 -4588 -4658 0
4400 4588 -4658 0
-4400 4588 4658 0
4400 -4588 4658 0
-4658 -4657 -4620 0
4658 4657 -4620 0
-4658 4657 4620 0
4658 -4657 4620 0
-4400 -4588 4659 0
-4400 -4657 4659 0
-4588 -4657 4659 0
4400 4588 -4659 0
4400 4657 -4659 0
4588 4657 -4659 0
-4401 -4589 -4660 0
4401 4589 -4660 0
-4401 4589 4660 0
4401 -4589 4660 0
-4660 -4659 -4621 0
4660 4659 -4621 0
-4660 4659 4621 0
4660 -4659 4621 0
-4401 -4589 4661 0
-4401 -4659 4661 0
-4589 -4659 4661 0
4401 4589 -4661 0
4401 4659 -4661 0
4589 4659 -4661 0
-4402 -4590 -4662 0
4402 4590 -4662 0
-4402 4590 4662 0
4402 -4590 4662 0
-4662 -4661 -4622 0
4662 4661 -4622 0
-4662 4661 4622 0
4662 -4661 4622 0
-4402 -4590 4663 0
-4402 -4661 4663 0
-4590 -4661 4663 0
4402 4590 -4663 0
4402 4661 -4663 0
4590 4661 -4663 0
-4403 -4591 -4664 0
4403 4591 -4664 0
-4403 4591 4664 0
4403 -4591 4664 0
-4664 -4663 -4623 0
4664 4663 -4623 0
-4664 4663 4623 0
4664 -4663 4623 0
-4403 -4591 4665 0
-4403 -4663 4665 0
-4591 -4663 4665 0
4403 4591 -4665 0
4403 4663 -4665 0
4591 4663 -4665 0
-4404 -4592 -4666 0
4404 4592 -4666 0
-4404 4592 4666 0
4404 -4592 4666 0
-4666 -4665 -4624 0
4666 4665 -4624 0
-4666 4665 4624 0
4666 -4665 4624 0
-4404 -4592 4667 0
-4404 -4665 4667 0
-4592 -4665 4667 0
4404 4592 -4667 0
4404 4665 -4667 0
4592 4665 -4667 0
-4405 -4593 -4668 0
4405 4593 -4668 0
-4405 4593 4668 0
4405 -4593 4668 0
-4668 -4667 -4625 0
4668 4667 -4625 0
-4668 4667 4625 0
4668 -4667 4625 0
-4405 -4593 4669 0
-4405 -4667 4669 0
-4593 -4667 4669 0
4405 4593 -4669 0
4405 4667 -4669 0
4593 4667 -4669 0
-4406 -4594 -4670 0
4406 4594 -4670 0
-4406 4594 4670 0
4406 -4594 4670 0
-4670 -4669 -4626 0
4670 4669 -4626 0
-4670 4669 4626 0
4670 -4669 4626 0
-4406 -4594 4671 0
-4406 -4669 4671 0
-4594 -4669 4671 0
4406 4594 -4671 0
4406 4669 -4671 0
4594 4669 -4671 0
-4407 -4595 -4672 0
4407 4595 -4672 0
-4407 4595 4672 0
4407 -4595 4672 0
-4672 -4671 -4627 0
4672 4671 -4627 0
-4672 4671 4627 0
4672 -4671 4627 0
-4407 -4595 4673 0
-4407 -4671 4673 0
-4595 -4671 4673 0
4407 4595 -4673 0
4407 4671 -4673 0
4595 4671 -4673 0
-4408 -4596 -4674 0
4408 4596 -4674 0
-4408 4596 4674 0
4408 -4596 4674 0
-4674 -4673 -4628 0
4674 4673 -4628 0
-4674 4673 4628 0
4674 -4673 4628 0
-4408 -4596 4675 0
-4408 -4673 4675 0
-4596 -4673 4675 0
4408 4596 -4675 0
4408 4673 -4675 0
4596 4673 -4675 0
-4409 -4597 -4676 0
4409 4597 -4676 0
-4409 4597 4676 0
4409 -4597 4676 0
-4676 -4675 -4629 0
4676 4675 -4629 0
-4676 4675 4629 0
4676 -4675 4629 0
-4409 -4597 4677 0
-4409 -4675 4677 0
-4597 -4675 4677 0
4409 4597 -4677 0
4409 4675 -4677 0
4597 4675 -4677 0
-4410 -4598 -4678 0
4410 4598 -4678 0
-4410 4598 4678 0
4410 -4598 4678 0
-4678 -4677 -4630 0
4678 4677 -4630 0
-4678 4677 4630 0
4678 -4677 4630 0
-4410 -4598 4679 0
-4410 -4677 4679 0
-4598 -4677 4679 0
4410 4598 -4679 0
4410 4677 -4679 0
4598 4677 -4679 0
-4411 -4599 -4680 0
4411 4599 -4680 0
-4411 4599 4680 0
4411 -4599 4680 0
-4680 -4679 -4631 0
4680 4679 -4631 0
-4680 4679 4631 0
4680 -4679 4631 0
-4411 -4599 4681 0
-4411 -4679 4681 0
-4599 -4679 4681 0
4411 4599 -4681 0
4411 4679 -4681 0
4599 4679 -4681 0
-4412 -4600 -4682 0
4412 4600 -4682 0
-4412 4600 4682 0
4412 -4600 4682 0
-4682 -4681 -4632 0
4682 4681 -4632 0
-4682 4681 4632 0
4682 -4681 4632 0
-4412 -4600 4683 0
-4412 -4681 4683 0
-4600 -4681 4683 0
4412 4600 -4683 0
4412 4681 -4683 0
4600 4681 -4683 0
-4413 -4601 -4684 0
4413 4601 -4684 0
-4413 4601 4684 0
4413 -4601 4684 0
-4684 -4683 -4633 0
4684 4683 -4633 0
-4684 4683 4633 0
4684 -4683 4633 0
-4413 -4601 4685 0
-4413 -4683 4685 0
-4601 -4683 4685 0
4413 4601 -4685 0
4413 4683 -4685 0
4601 4683 -4685 0
-4414 -4602 -4686 0
4414 4602 -4686 0
-4414 4602 4686 0
4414 -4602 4686 0
-4686 -4685 -4634 0
4686 4685 -4634 0
-4686 4685 4634 0
4686 -4685 4634 0
-4414 -4602 4687 0
-4414 -4685 4687 0
-4602 -4685 4687 0
4414 4602 -4687 0
4414 4685 -4687 0
4602 4685 -4687 0
-4415 -4603 -4688 0
4415 4603 -4688 0
-4415 4603 4688 0
4415 -4603 4688 0
-4688 -4687 -4635 0
4688 4687 -4635 0
-4688 4687 4635 0
4688 -4687 4635 0
-4415 -4603 4689 0
-4415 -4687 4689 0
-4603 -4687 4689 0
4415 4603 -4689 0
4415 4687 -4689 0
4603 4687 -4689 0
-4416 -4604 -4690 0
4416 4604 -4690 0
-4416 4604 4690 0
4416 -4604 4690 0
-4690 -4689 -4636 0
4690 4689 -4636 0
-4690 4689 4636 0
4690 -4689 4636 0
-4416 -4604 4691 0
-4416 -4689 4691 0
-4604 -4689 4691 0
4416 4604 -4691 0
4416 4689 -4691 0
4604 4689 -4691 0
-4417 -4605 -4692 0
4417 4605 -4692 0
-4417 4605 4692 0
4417 -4605 4692 0
-4692 -4691 -4637 0
4692 4691 -4637 0
-4692 4691 4637 0
4692 -4691 4637 0
-4417 -4605 4693 0
-4417 -4691 4693 0
-4605 -4691 4693 0
4417 4605 -4693 0
4417 4691 -4693 0
4605 4691 -4693 0
-4418 -4606 -4694 0
4418 4606 -4694 0
-4418 4606 4694 0
4418 -4606 4694 0
-4694 -4693 -4638 0
4694 4693 -4638 0
-4694 4693 4638 0
4694 -4693 4638 0
-4418 -4606 4695 0
-4418 -4693 4695 0
-4606 -4693 4695 0
4418 4606 -4695 0
4418 4693 -4695 0
4606 4693 -4695 0
-4419 -4607 -4696 0
4419 4607 -4696 0
-4419 4607 4696 0
4419 -4607 4696 0
-4696 -4695 -4639 0
4696 4695 -4639 0
-4696 4695 4639 0
4696 -4695 4639 0
-4419 -4607 4697 0
-4419 -4695 4697 0
-4607 -4695 4697 0
4419 4607 -4697 0
4419 4695 -4697 0
4607 4695 -4697 0
-4420 -4608 -4698 0
4420 4608 -4698 0
-4420 4608 4698 0
4420 -4608 4698 0
-4698 -4697 -4640 0
4698 4697 -4640 0
-4698 4697 4640 0
4698 -4697 4640 0
-4420 -4608 4699 0
-4420 -4697 4699 0
-4608 -4697 4699 0
4420 4608 -4699 0
4420 4697 -4699 0
4608 4697 -4699 0
-4421 -4609 -4700 0
4421 4609 -4700 0
-4421 4609 4700 0
4421 -4609 4700 0
-4700 -4699 -4641 0
4700 4699 -4641 0
-4700 4699 4641 0
4700 -4699 4641 0
-4421 -4609 4701 0
-4421 -4699 4701 0
-4609 -4699 4701 0
4421 4609 -4701 0
4421 4699 -4701 0
4609 4699 -4701 0
-4422 -4610 -4702 0
4422 4610 -4702 0
-4422 4610 4702 0
4422 -4610 4702 0
-4702 -4701 -4642 0
4702 4701 -4642 0
-4702 4701 4642 0
4702 -4701 4642 0
-4422 -4610 4703 0
-4422 -4701 4703 0
-4610 -4701 4703 0
4422 4610 -4703 0
4422 4701 -4703 0
4610 4701 -4703 0
-4423 -4611 -4704 0
4423 4611 -4704 0
-4423 4611 4704 0
4423 -4611 4704 0
-4704 -4703 -4643 0
4704 4703 -4643 0
-4704 4703 4643 0
4704 -4703 4643 0
-4423 -4611 4705 0
-4423 -4703 4705 0
-4611 -4703 4705 0
4423 4611 -4705 0
4423 4703 -4705 0
4611 4703 -4705 0
-4424 -4612 -4706 0
4424 4612 -4706 0
-4424 4612 4706 0
4424 -4612 4706 0
-4706 -4705 -4644 0
4706 4705 -4644 0
-4706 4705 4644 0
4706 -4705 4644 0
-4487 -4613 -4707 0
4487 4613 -4707 0
-4487 4613 4707 0
4487 -4613 4707 0
-4487 -4613 4739 0
4487 -4739 0
4613 -4739 0
-4488 -4614 -4740 0
4488 4614 -4740 0
-4488 4614 4740 0
4488 -4614 4740 0
-4740 -4739 -4708 0
4740 4739 -4708 0
-4740 4739 4708 0
4740 -4739 4708 0
-4488 -4614 4741 0
-4488 -4739 4741 0
-4614 -4739 4741 0
4488 4614 -4741 0
4488 4739 -4741 0
4614 4739 -4741 0
-4489 -4615 -4742 0
4489 4615 -4742 0
-4489 4615 4742 0
4489 -4615 4742 0
-4742 -4741 -4709 0
4742 4741 -4709 0
-4742 4741 4709 0
4742 -4741 4709 0
-4489 -4615 4743 0
-4489 -4741 4743 0
-4615 -4741 4743 0
4489 4615 -4743 0
4489 4741 -4743 0
4615 4741 -4743 0
-4490 -4616 -4744 0
4490 4616 -4744 0
-4490 4616 4744 0
4490 -4616 4744 0
-4744 -4743 -4710 0
4744 4743 -4710 0
-4744 4743 4710 0
4744 -4743 4710 0
-4490 -4616 4745 0
-4490 -4743 4745 0
-4616 -4743 4745 0
4490 4616 -4745 0
4490 4743 -4745 0
4616 4743 -4745 0
-4491 -4617 -4746 0
4491 4617 -4746 0
-4491 4617 4746 0
4491 -4617 4746 0
-4746 -4745 -4711 0
4746 4745 -4711 0
-4746 4745 4711 0
4746 -4745 4711 0
-4491 -4617 4747 0
-4491 -4745 4747 0
-4617 -4745 4747 0
4491 4617 -4747 0
4491 4745 -4747 0
4617 4745 -4747 0
-4492 -4618 -4748 0
4492 4618 -4748 0
-4492 4618 4748 0
4492 -4618 4748 0
-4748 -4747 -4712 0
4748 4747 -4712 0
-4748 4747 4712 0
4748 -4747 4712 0
-4492 -4618 4749 0
-4492 -4747 4749 0
-4618 -4747 4749 0
4492 4618 -4749 0
4492 4747 -4749 0
4618 4747 -4749 0
-4493 -4619 -4750 0
4493 4619 -4750 0
-4493 4619 4750 0
4493 -4619 4750 0
-4750 -4749 -4713 0
4750 4749 -4713 0
-4750 4749 4713 0
4750 -4749 4713 0
-4493 -4619 4751 0
-4493 -4749 4751 0
-4619 -4749 4751 0
4493 4619 -4751 0
4493 4749 -4751 0
4619 4749 -4751 0
-4494 -4620 -4752 0
4494 4620 -4752 0
-4494 4620 4752 0
4494 -4620 4752 0
-4752 -4751 -4714 0
4752 4751 -4714 0
-4752 4751 4714 0
4752 -4751 4714 0
-4494 -4620 4753 0
-4494 -4751 4753 0
-4620 -4751 4753 0
4494 4620 -4753 0
4494 4751 -4753 0
4620 4751 -4753 0
-4495 -4621 -4754 0
4495 4621 -4754 0
-4495 4621 4754 0
4495 -4621 4754 0
-4754 -4753 -4715 0
4754 4753 -4715 0
-4754 4753 4715 0
4754 -4753 4715 0
-4495 -4621 4755 0
-4495 -4753 4755 0
-4621 -4753 4755 0
4495 4621 -4755 0
4495 4753 -4755 0
4621 4753 -4755 0
-4496 -4622 -4756 0
4496 4622 -4756 0
-4496 4622 4756 0
4496 -4622 4756 0
-4756 -4755 -4716 0
4756 4755 -4716 0
-4756 4755 4716 0
4756 -4755 4716 0
-4496 -4622 4757 0
-4496 -4755 4757 0
-4622 -4755 4757 0
4496 4622 -4757 0
4496 4755 -4757 0
4622 4755 -4757 0
-4497 -4623 -4758 0
4497 4623 -4758 0
-4497 4623 4758 0
4497 -4623 4758 0
-4758 -4757 -4717 0
4758 4757 -4717 0
-4758 4757 4717 0
4758 -4757 4717 0
-4497 -4623 4759 0
-4497 -4757 4759 0
-4623 -4757 4759 0
4497 4623 -4759 0
4497 4757 -4759 0
4623 4757 -4759 0
-4498 -4624 -4760 0
4498 4624 -4760 0
-4498 4624 4760 0
4498 -4624 4760 0
-4760 -4759 -4718 0
4760 4759 -4718 0
-4760 4759 4718 0
4760 -4759 4718 0
-4498 -4624 4761 0
-4498 -4759 4761 0
-4624 -4759 4761 0
4498 4624 -4761 0
4498 4759 -4761 0
4624 4759 -4761 0
-4499 -4625 -4762 0
4499 4625 -4762 0
-4499 4625 4762 0
4499 -4625 4762 0
-4762 -4761 -4719 0
4762 4761 -4719 0
-4762 4761 4719 0
4762 -4761 4719 0
-4499 -4625 4763 0
-4499 -4761 4763 0
-4625 -4761 4763 0
4499 4625 -4763 0
4499 4761 -4763 0
4625 4761 -4763 0
-4500 -4626 -4764 0
4500 4626 -4764 0
-4500 4626 4764 0
4500 -4626 4764 0
-4764 -4763 -4720 0
4764 4763 -4720 0
-4764 4763 4720 0
4764 -4763 4720 0
-4500 -4626 4765 0
-4500 -4763 4765 0
-4626 -4763 4765 0
4500 4626 -4765 0
4500 4763 -4765 0
4626 4763 -4765 0
-4501 -4627 -4766 0
4501 4627 -4766 0
-4501 4627 4766 0
4501 -4627 4766 0
-4766 -4765 -4721 0
4766 4765 -4721 0
-4766 4765 4721 0
4766 -4765 4721 0
-4501 -4627 4767 0
-4501 -4765 4767 0
-4627 -4765 4767 0
4501 4627 -4767 0
4501 4765 -4767 0
4627 4765 -4767 0
-4502 -4628 -4768 0
4502 4628 -4768 0
-4502 4628 4768 0
4502 -4628 4768 0
-4768 -4767 -4722 0
4768 4767 -4722 0
-4768 4767 4722 0
4768 -4767 4722 0
-4502 -4628 4769 0
-4502 -4767 4769 0
-4628 -4767 4769 0
4502 4628 -4769 0
4502 4767 -4769 0
4628 4767 -4769 0
-4503 -4629 -4770 0
4503 4629 -4770 0
-4503 4629 4770 0
4503 -4629 4770 0
-4770 -4769 -4723 0
4770 4769 -4723 0
-4770 4769 4723 0
4770 -4769 4723 0
-4503 -4629 4771 0
-4503 -4769 4771 0
-4629 -4769 4771 0
4503 4629 -4771 0
4503 4769 -4771 0
4629 4769 -4771 0
-4504 -4630 -4772 0
4504 4630 -4772 0
-4504 4630 4772 0
4504 -4630 4772 0
-4772 -4771 -4724 0
4772 4771 -4724 0
-4772 4771 4724 0
4772 -4771 4724 0
-4504 -4630 4773 0
-4504 -4771 4773 0
-4630 -4771 4773 0
4504 4630 -4773 0
4504 4771 -4773 0
4630 4771 -4773 0
-4505 -4631 -4774 0
4505 4631 -4774 0
-4505 4631 4774 0
4505 -4631 4774 0
-4774 -4773 -4725 0
4774 4773 -4725 0
-4774 4773 4725 0
4774 -4773 4725 0
-4505 -4631 4775 0
-4505 -4773 4775 0
-4631 -4773 4775 0
4505 4631 -4775 0
4505 4773 -4775 0
4631 4773 -4775 0
-4506 -4632 -4776 0
4506 4632 -4776 0
-4506 4632 4776 0
4506 -4632 4776 0
-4776 -4775 -4726 0
4776 4775 -4726 0
-4776 4775 4726 0
4776 -4775 4726 0
-4506 -4632 4777 0
-4506 -4775 4777 0
-4632 -4775 4777 0
4506 4632 -4777 0
4506 4775 -4777 0
4632 4775 -4777 0
-4507 -4633 -4778 0
4507 4633 -4778 0
-4507 4633 4778 0
4507 -4633 4778 0
-4778 -4777 -4727 0
4778 4777 -4727 0
-4778 4777 4727 0
4778 -4777 4727 0
-4507 -4633 4779 0
-4507 -4777 4779 0
-4633 -4777 4779 0
4507 4633 -4779 0
4507 4777 -4779 0
4633 4777 -4779 0
-4508 -4634 -4780 0
4508 4634 -4780 0
-4508 4634 4780 0
4508 -4634 4780 0
-4780 -4779 -4728 0
4780 4779 -4728 0
-4780 4779 4728 0
4780 -4779 4728 0
-4508 -4634 4781 0
-4508 -4779 4781 0
-4634 -4779 4781 0
4508 4634 -4781 0
4508 4779 -4781 0
4634 4779 -4781 0
-4509 -4635 -4782 0
4509 4635 -4782 0
-4509 4635 4782 0
4509 -4635 4782 0
-4782 -4781 -4729 0
4782 4781 -4729 0
-4782 4781 4729 0
4782 -4781 4729 0
-4509 -4635 4783 0
-4509 -4781 4783 0
-4635 -4781 4783 0
4509 4635 -4783 0
4509 4781 -4783 0
4635 4781 -4783 0
-4510 -4636 -4784 0
4510 4636 -4784 0
-4510 4636 4784 0
4510 -4636 4784 0
-4784 -4783 -4730 0
4784 4783 -4730 0
-4784 4783 4730 0
4784 -4783 4730 0
-4510 -4636 4785 0
-4510 -4783 4785 0
-4636 -4783 4785 0
4510 4636 -4785 0
4510 4783 -4785 0
4636 4783 -4785 0
-4511 -4637 -4786 0
4511 4637 -4786 0
-4511 4637 4786 0
4511 -4637 4786 0
-4786 -4785 -4731 0
4786 4785 -4731 0
-4786 4785 4731 0
4786 -4785 4731 0
-4511 -4637 4787 0
-4511 -4785 4787 0
-4637 -4785 4787 0
4511 4637 -4787 0
4511 4785 -4787 0
4637 4785 -4787 0
-4512 -4638 -4788 0
4512 4638 -4788 0
-4512 4638 4788 0
4512 -4638 4788 0
-4788 -4787 -4732 0
4788 4787 -4732 0
-4788 4787 4732 0
4788 -4787 4732 0
-4512 -4638 4789 0
-4512 -4787 4789 0
-4638 -4787 4789 0
4512 4638 -4789 0
4512 4787 -4789 0
4638 4787 -4789 0
-4513 -4639 -4790 0
4513 4639 -4790 0
-4513 4639 4790 0
4513 -4639 4790 0
-4790 -4789 -4733 0
4790 4789 -4733 0
-4790 4789 4733 0
4790 -4789 4733 0
-4513 -4639 4791 0
-4513 -4789 4791 0
-4639 -4789 4791 0
4513 4639 -4791 0
4513 4789 -4791 0
4639 4789 -4791 0
-4514 -4640 -4792 0
4514 4640 -4792 0
-4514 4640 4792 0
4514 -4640 4792 0
-4792 -4791 -4734 0
4792 4791 -4734 0
-4792 4791 4734 0
4792 -4791 4734 0
-4514 -4640 4793 0
-4514 -4791 4793 0
-4640 -4791 4793 0
4514 4640 -4793 0
4514 4791 -4793 0
4640 4791 -4793 0
-4515 -4641 -4794 0
4515 4641 -4794 0
-4515 4641 4794 0
4515 -4641 4794 0
-4794 -4793 -4735 0
4794 4793 -4735 0
-4794 4793 4735 0
4794 -4793 4735 0
-4515 -4641 4795 0
-4515 -4793 4795 0
-4641 -4793 4795 0
4515 4641 -4795 0
4515 4793 -4795 0
4641 4793 -4795 0
-4516 -4642 -4796 0
4516 4642 -4796 0
-4516 4642 4796 0
4516 -4642 4796 0
-4796 -4795 -4736 0
4796 4795 -4736 0
-4796 4795 4736 0
4796 -4795 4736 0
-4516 -4642 4797 0
-4516 -4795 4797 0
-4642 -4795 4797 0
4516 4642 -4797 0
4516 4795 -4797 0
4642 4795 -4797 0
-4517 -4643 -4798 0
4517 4643 -4798 0
-4517 4643 4798 0
4517 -4643 4798 0
-4798 -4797 -4737 0
4798 4797 -4737 0
-4798 4797 4737 0
4798 -4797 4737 0
-4517 -4643 4799 0
-4517 -4797 4799 0
-4643 -4797 4799 0
4517 4643 -4799 0
4517 4797 -4799 0
4643 4797 -4799 0
-4518 -4644 -4800 0
4518 4644 -4800 0
-4518 4644 4800 0
4518 -4644 4800 0
-4800 -4799 -4738 0
4800 4799 -4738 0
-4800 4799 4738 0
4800 -4799 4738 0
-4205 -4216 -4833 0
4205 4216 -4833 0
-4205 4216 4833 0
4205 -4216 4833 0
-4833 -4225 -4801 0
4833 4225 -4801 0
-4833 4225 4801 0
4833 -4225 4801 0
-4206 -4217 -4834 0
4206 4217 -4834 0
-4206 4217 4834 0
4206 -4217 4834 0
-4834 -4226 -4802 0
4834 4226 -4802 0
-4834 4226 4802 0
4834 -4226 4802 0
-4207 -4218 -4835 0
4207 4218 -4835 0
-4207 4218 4835 0
4207 -4218 4835 0
-4835 -4227 -4803 0
4835 4227 -4803 0
-4835 4227 4803 0
4835 -4227 4803 0
-4208 -4219 -4836 0
4208 4219 -4836 0
-4208 4219 4836 0
4208 -4219 4836 0
-4836 -4228 -4804 0
4836 4228 -4804 0
-4836 4228 4804 0
4836 -4228 4804 0
-4209 -4220 -4837 0
4209 4220 -4837 0
-4209 4220 4837 0
4209 -4220 4837 0
-4837 -4229 -4805 0
4837 4229 -4805 0
-4837 4229 4805 0
4837 -4229 4805 0
-4210 -4221 -4838 0
4210 4221 -4838 0
-4210 4221 4838 0
4210 -4221 4838 0
-4838 -4230 -4806 0
4838 4230 -4806 0
-4838 4230 4806 0
4838 -4230 4806 0
-4211 -4222 -4839 0
4211 4222 -4839 0
-4211 4222 4839 0
4211 -4222 4839 0
-4839 -4231 -4807 0
4839 4231 -4807 0
-4839 4231 4807 0
4839 -4231 4807 0
-4212 -4223 -4840 0
4212 4223 -4840 0
-4212 4223 4840 0
4212 -4223 4840 0
-4840 -4232 -4808 0
4840 4232 -4808 0
-4840 4232 4808 0
4840 -4232 4808 0
-4213 -4224 -4841 0
4213 4224 -4841 0
-4213 4224 4841 0
4213 -4224 4841 0
-4841 -4233 -4809 0
4841 4233 -4809 0
-4841 4233 4809 0
4841 -4233 4809 0
-4214 -4225 -4842 0
4214 4225 -4842 0
-4214 4225 4842 0
4214 -4225 4842 0
-4842 -4234 -4810 0
4842 4234 -4810 0
-4842 4234 4810 0
4842 -4234 4810 0
-4215 -4226 -4843 0
4215 4226 -4843 0
-4215 4226 4843 0
4215 -4226 4843 0
-4843 -4203 -4811 0
4843 4203 -4811 0
-4843 4203 4811 0
4843 -4203 4811 0
-4216 -4227 -4844 0
4216 4227 -4844 0
-4216 4227 4844 0
4216 -4227 4844 0
-4844 -4204 -4812 0
4844 4204 -4812 0
-4844 4204 4812 0
4844 -4204 4812 0
-4217 -4228 -4845 0
4217 4228 -4845 0
-4217 4228 4845 0
4217 -4228 4845 0
-4845 -4205 -4813 0
4845 4205 -4813 0
-4845 4205 4813 0
4845 -4205 4813 0
-4218 -4229 -4846 0
4218 4229 -4846 0
-4218 4229 4846 0
4218 -4229 4846 0
-4846 -4206 -4814 0
4846 4206 -4814 0
-4846 4206 4814 0
4846 -4206 4814 0
-4219 -4230 -4847 0
4219 4230 -4847 0
-4219 4230 4847 0
4219 -4230 4847 0
-4847 -4207 -4815 0
4847 4207 -4815 0
-4847 4207 4815 0
4847 -4207 4815 0
-4220 -4231 -4848 0
4220 4231 -4848 0
-4220 4231 4848 0
4220 -4231 4848 0
-4848 -4208 -4816 0
4848 4208 -4816 0
-4848 4208 4816 0
4848 -4208 4816 0
-4221 -4232 -4849 0
4221 4232 -4849 0
-4221 4232 4849 0
4221 -4232 4849 0
-4849 -4209 -4817 0
4849 4209 -4817 0
-4849 4209 4817 0
4849 -4209 4817 0
-4222 -4233 -4850 0
4222 4233 -4850 0
-4222 4233 4850 0
4222 -4233 4850 0
-4850 -4210 -4818 0
4850 4210 -4818 0
-4850 4210 4818 0
4850 -4210 4818 0
-4223 -4234 -4851 0
4223 4234 -4851 0
-4223 4234 4851 0
4223 -4234 4851 0
-4851 -4211 -4819 0
4851 4211 -4819 0
-4851 4211 4819 0
4851 -4211 4819 0
-4224 -4203 -4852 0
4224 4203 -4852 0
-4224 4203 4852 0
4224 -4203 4852 0
-4852 -4212 -4820 0
4852 4212 -4820 0
-4852 4212 4820 0
4852 -4212 4820 0
-4225 -4204 -4853 0
4225 4204 -4853 0
-4225 4204 4853 0
4225 -4204 4853 0
-4853 -4213 -4821 0
4853 4213 -4821 0
-4853 4213 4821 0
4853 -4213 4821 0
-4226 -4205 -4854 0
4226 4205 -4854 0
-4226 4205 4854 0
4226 -4205 4854 0
-4854 -4214 -4822 0
4854 4214 -4822 0
-4854 4214 4822 0
4854 -4214 4822 0
-4227 -4206 -4855 0
4227 4206 -4855 0
-4227 4206 4855 0
4227 -4206 4855 0
-4855 -4215 -4823 0
4855 4215 -4823 0
-4855 4215 4823 0
4855 -4215 4823 0
-4228 -4207 -4856 0
4228 4207 -4856 0
-4228 4207 4856 0
4228 -4207 4856 0
-4856 -4216 -4824 0
4856 4216 -4824 0
-4856 4216 4824 0
4856 -4216 4824 0
-4229 -4208 -4857 0
4229 4208 -4857 0
-4229 4208 4857 0
4229 -4208 4857 0
-4857 -4217 -4825 0
4857 4217 -4825 0
-4857 4217 4825 0
4857 -4217 4825 0
-4230 -4209 -4858 0
4230 4209 -4858 0
-4230 4209 4858 0
4230 -4209 4858 0
-4858 -4218 -4826 0
4858 4218 -4826 0
-4858 4218 4826 0
4858 -4218 4826 0
-4231 -4210 -4859 0
4231 4210 -4859 0
-4231 4210 4859 0
4231 -4210 4859 0
-4859 -4219 -4827 0
4859 4219 -4827 0
-4859 4219 4827 0
4859 -4219 4827 0
-4232 -4211 -4860 0
4232 4211 -4860 0
-4232 4211 4860 0
4232 -4211 4860 0
-4860 -4220 -4828 0
4860 4220 -4828 0
-4860 4220 4828 0
4860 -4220 4828 0
-4233 -4212 -4861 0
4233 4212 -4861 0
-4233 4212 4861 0
4233 -4212 4861 0
-4861 -4221 -4829 0
4861 4221 -4829 0
-4861 4221 4829 0
4861 -4221 4829 0
-4234 -4213 -4862 0
4234 4213 -4862 0
-4234 4213 4862 0
4234 -4213 4862 0
-4862 -4222 -4830 0
4862 4222 -4830 0
-4862 4222 4830 0
4862 -4222 4830 0
-4203 -4214 -4863 0
4203 4214 -4863 0
-4203 4214 4863 0
4203 -4214 4863 0
-4863 -4223 -4831 0
4863 4223 -4831 0
-4863 4223 4831 0
4863 -4223 4831 0
-4204 -4215 -4864 0
4204 4215 -4864 0
-4204 4215 4864 0
4204 -4215 4864 0
-4864 -4224 -4832 0
4864 4224 -4832 0
-4864 4224 4832 0
4864 -4224 4832 0
-4203 -3321 4865 0
-4203 -2439 4865 0
-3321 -2439 4865 0
4203 3321 -4865 0
4203 2439 -4865 0
3321 2439 -4865 0
-4204 -3322 4866 0
-4204 -2440 4866 0
-3322 -2440 4866 0
4204 3322 -4866 0
4204 2440 -4866 0
3322 2440 -4866 0
-4205 -3323 4867 0
-4205 -2441 4867 0
-3323 -2441 4867 0
4205 3323 -4867 0
4205 2441 -4867 0
3323 2441 -4867 0
-4206 -3324 4868 0
-4206 -2442 4868 0
-3324 -2442 4868 0
4206 3324 -4868 0
4206 2442 -4868 0
3324 2442 -4868 0
-4207 -3325 4869 0
-4207 -2443 4869 0
-3325 -2443 4869 0
4207 3325 -4869 0
4207 2443 -4869 0
3325 2443 -4869 0
-4208 -3326 4870 0
-4208 -2444 4870 0
-3326 -2444 4870 0
4208 3326 -4870 0
4208 2444 -4870 0
3326 2444 -4870 0
-4209 -3327 4871 0
-4209 -2445 4871 0
-3327 -2445 4871 0
4209 3327 -4871 0
4209 2445 -4871 0
3327 2445 -4871 0
-4210 -3328 4872 0
-4210 -2446 4872 0
-3328 -2446 4872 0
4210 3328 -4872 0
4210 2446 -4872 0
3328 2446 -4872 0
-4211 -3329 4873 0
-4211 -2447 4873 0
-3329 -2447 4873 0
4211 3329 -4873 0
4211 2447 -4873 0
3329 2447 -4873 0
-4212 -3330 4874 0
-4212 -2448 4874 0
-3330 -2448 4874 0
4212 3330 -4874 0
4212 2448 -4874 0
3330 2448 -4874 0
-4213 -3331 4875 0
-4213 -2449 4875 0
-3331 -2449 4875 0
4213 3331 -4875 0
4213 2449 -4875 0
3331 2449 -4875 0
-4214 -3332 4876 0
-4214 -2450 4876 0
-3332 -2450 4876 0
4214 3332 -4876 0
4214 2450 -4876 0
3332 2450 -4876 0
-4215 -3333 4877 0
-4215 -2451 4877 0
-3333 -2451 4877 0
4215 3333 -4877 0
4215 2451 -4877 0
3333 2451 -4877 0
-4216 -3334 4878 0
-4216 -2452 4878 0
-3334 -2452 4878 0
4216 3334 -4878 0
4216 2452 -4878 0
3334 2452 -4878 0
-4217 -3335 4879 0
-4217 -2453 4879 0
-3335 -2453 4879 0
4217 3335 -4879 0
4217 2453 -4879 0
3335 2453 -4879 0
-4218 -3336 4880 0
-4218 -2454 4880 0
-3336 -2454 4880 0
4218 3336 -4880 0
4218 2454 -4880 0
3336 2454 -4880 0
-4219 -3337 4881 0
-4219 -2455 4881 0
-3337 -2455 4881 0
4219 3337 -4881 0
4219 2455 -4881 0
3337 2455 -4881 0
-4220 -3338 4882 0
-4220 -2456 4882 0
-3338 -2456 4882 0
4220 3338 -4882 0
4220 2456 -4882 0
3338 2456 -4882 0
-4221 -3339 4883 0
-4221 -2457 4883 0
-3339 -2457 4883 0
4221 3339 -4883 0
4221 2457 -4883 0
3339 2457 -4883 0
-4222 -3340 4884 0
-4222 -2458 4884 0
-3340 -2458 4884 0
4222 3340 -4884 0
4222 2458 -4884 0
3340 2458 -4884 0
-4223 -3341 4885 0
-4223 -2459 4885 0
-3341 -2459 4885 0
4223 3341 -4885 0
4223 2459 -4885 0
3341 2459 -4885 0
-4224 -3342 4886 0
-4224 -2460 4886 0
-3342 -2460 4886 0
4224 3342 -4886 0
4224 2460 -4886 0
3342 2460 -4886 0
-4225 -3343 4887 0
-4225 -2461 4887 0
-3343 -2461 4887 0
4225 3343 -4887 0
4225 2461 -4887 0
3343 2461 -4887 0
-4226 -3344 4888 0
-4226 -2462 4888 0
-3344 -2462 4888 0
4226 3344 -4888 0
4226 2462 -4888 0
3344 2462 -4888 0
-4227 -3345 4889 0
-4227 -2463 4889 0
-3345 -2463 4889 0
4227 3345 -4889 0
4227 2463 -4889 0
3345 2463 -4889 0
-4228 -3346 4890 0
-4228 -2464 4890 0
-3346 -2464 4890 0
4228 3346 -4890 0
4228 2464 -4890 0
3346 2464 -4890 0
-4229 -3347 4891 0
-4229 -2465 4891 0
-3347 -2465 4891 0
4229 3347 -4891 0
4229 2465 -4891 0
3347 2465 -4891 0
-4230 -3348 4892 0
-4230 -2466 4892 0
-3348 -2466 4892 0
4230 3348 -4892 0
4230 2466 -4892 0
3348 2466 -4892 0
-4231 -3349 4893 0
-4231 -2467 4893 0
-3349 -2467 4893 0
4231 3349 -4893 0
4231 2467 -4893 0
3349 2467 -4893 0
-4232 -3350 4894 0
-4232 -2468 4894 0
-3350 -2468 4894 0
4232 3350 -4894 0
4232 2468 -4894 0
3350 2468 -4894 0
-4233 -3351 4895 0
-4233 -2469 4895 0
-3351 -2469 4895 0
4233 3351 -4895 0
4233 2469 -4895 0
3351 2469 -4895 0
-4234 -3352 4896 0
-4234 -2470 4896 0
-3352 -2470 4896 0
4234 3352 -4896 0
4234 2470 -4896 0
3352 2470 -4896 0
-4801 -4865 -4897 0
4801 4865 -4897 0
-4801 4865 4897 0
4801 -4865 4897 0
-4801 -4865 4929 0
4801 -4929 0
4865 -4929 0
-4802 -4866 -4930 0
4802 4866 -4930 0
-4802 4866 4930 0
4802 -4866 4930 0
-4930 -4929 -4898 0
4930 4929 -4898 0
-4930 4929 4898 0
4930 -4929 4898 0
-4802 -4866 4931 0
-4802 -4929 4931 0
-4866 -4929 4931 0
4802 4866 -4931 0
4802 4929 -4931 0
4866 4929 -4931 0
-4803 -4867 -4932 0
4803 4867 -4932 0
-4803 4867 4932 0
4803 -4867 4932 0
-4932 -4931 -4899 0
4932 4931 -4899 0
-4932 4931 4899 0
4932 -4931 4899 0
-4803 -4867 4933 0
-4803 -4931 4933 0
-4867 -4931 4933 0
4803 4867 -4933 0
4803 4931 -4933 0
4867 4931 -4933 0
-4804 -4868 -4934 0
4804 4868 -4934 0
-4804 4868 4934 0
4804 -4868 4934 0
-4934 -4933 -4900 0
4934 4933 -4900 0
-4934 4933 4900 0
4934 -4933 4900 0
-4804 -4868 4935 0
-4804 -4933 4935 0
-4868 -4933 4935 0
4804 4868 -4935 0
4804 4933 -4935 0
4868 4933 -4935 0
-4805 -4869 -4936 0
4805 4869 -4936 0
-4805 4869 4936 0
4805 -4869 4936 0
-4936 -4935 -4901 0
4936 4935 -4901 0
-4936 4935 4901 0
4936 -4935 4901 0
-4805 -4869 4937 0
-4805 -4935 4937 0
-4869 -4935 4937 0
4805 4869 -4937 0
4805 4935 -4937 0
4869 4935 -4937 0
-4806 -4870 -4938 0
4806 4870 -4938 0
-4806 4870 4938 0
4806 -4870 4938 0
-4938 -4937 -4902 0
4938 4937 -4902 0
-4938 4937 4902 0
4938 -4937 4902 0
-4806 -4870 4939 0
-4806 -4937 4939 0
-4870 -4937 4939 0
4806 4870 -4939 0
4806 4937 -4939 0
4870 4937 -4939 0
-4807 -4871 -4940 0
4807 4871 -4940 0
-4807 4871 4940 0
4807 -4871 4940 0
-4940 -4939 -4903 0
4940 4939 -4903 0
-4940 4939 4903 0
4940 -4939 4903 0
-4807 -4871 4941 0
-4807 -4939 4941 0
-4871 -4939 4941 0
4807 4871 -4941 0
4807 4939 -4941 0
4871 4939 -4941 0
-4808 -4872 -4942 0
4808 4872 -4942 0
-4808 4872 4942 0
4808 -4872 4942 0
-4942 -4941 -4904 0
4942 4941 -4904 0
-4942 4941 4904 0
4942 -4941 4904 0
-4808 -4872 4943 0
-4808 -4941 4943 0
-4872 -4941 4943 0
4808 4872 -4943 0
4808 4941 -4943 0
4872 4941 -4943 0
-4809 -4873 -4944 0
4809 4873 -4944 0
-4809 4873 4944 0
4809 -4873 4944 0
-4944 -4943 -4905 0
4944 4943 -4905 0
-4944 4943 4905 0
4944 -4943 4905 0
-4809 -4873 4945 0
-4809 -4943 4945 0
-4873 -4943 4945 0
4809 4873 -4945 0
4809 4943 -4945 0
4873 4943 -4945 0
-4810 -4874 -4946 0
4810 4874 -4946 0
-4810 4874 4946 0
4810 -4874 4946 0
-4946 -4945 -4906 0
4946 4945 -4906 0
-4946 4945 4906 0
4946 -4945 4906 0
-4810 -4874 4947 0
-4810 -4945 4947 0
-4874 -4945 4947 0
4810 4874 -4947 0
4810 4945 -4947 0
4874 4945 -4947 0
-4811 -4875 -4948 0
4811 4875 -4948 0
-4811 4875 4948 0
4811 -4875 4948 0
-4948 -4947 -4907 0
4948 4947 -4907 0
-4948 4947 4907 0
4948 -4947 4907 0
-4811 -4875 4949 0
-4811 -4947 4949 0
-4875 -4947 4949 0
4811 4875 -4949 0
4811 4947 -4949 0
4875 4947 -4949 0
-4812 -4876 -4950 0
4812 4876 -4950 0
-4812 4876 4950 0
4812 -4876 4950 0
-4950 -4949 -4908 0
4950 4949 -4908 0
-4950 4949 4908 0
4950 -4949 4908 0
-4812 -4876 4951 0
-4812 -4949 4951 0
-4876 -4949 4951 0
4812 4876 -4951 0
4812 4949 -4951 0
4876 4949 -4951 0
-4813 -4877 -4952 0
4813 4877 -4952 0
-4813 4877 4952 0
4813 -4877 4952 0
-4952 -4951 -4909 0
4952 4951 -4909 0
-4952 4951 4909 0
4952 -4951 4909 0
-4813 -4877 4953 0
-4813 -4951 4953 0
-4877 -4951 4953 0
4813 4877 -4953 0
4813 4951 -4953 0
4877 4951 -4953 0
-4814 -4878 -4954 0
4814 4878 -4954 0
-4814 4878 4954 0
4814 -4878 4954 0
-4954 -4953 -4910 0
4954 4953 -4910 0
-4954 4953 4910 0
4954 -4953 4910 0
-4814 -4878 4955 0
-4814 -4953 4955 0
-4878 -4953 4955 0
4814 4878 -4955 0
4814 4953 -4955 0
4878 4953 -4955 0
-4815 -4879 -4956 0
4815 4879 -4956 0
-4815 4879 4956 0
4815 -4879 4956 0
-4956 -4955 -4911 0
4956 4955 -4911 0
-4956 4955 4911 0
4956 -4955 4911 0
-4815 -4879 4957 0
-4815 -4955 4957 0
-4879 -4955 4957 0
4815 4879 -4957 0
4815 4955 -4957 0
4879 4955 -4957 0
-4816 -4880 -4958 0
4816 4880 -4958 0
-4816 4880 4958 0
4816 -4880 4958 0
-4958 -4957 -4912 0
4958 4957 -4912 0
-4958 4957 4912 0
4958 -4957 4912 0
-4816 -4880 4959 0
-4816 -4957 4959 0
-4880 -4957 4959 0
4816 4880 -4959 0
4816 4957 -4959 0
4880 4957 -4959 0
-4817 -4881 -4960 0
4817 4881 -4960 0
-4817 4881 4960 0
4817 -4881 4960 0
-4960 -4959 -4913 0
4960 4959 -4913 0
-4960 4959 4913 0
4960 -4959 4913 0
-4817 -4881 4961 0
-4817 -4959 4961 0
-4881 -4959 4961 0
4817 4881 -4961 0
4817 4959 -4961 0
4881 4959 -4961 0
-4818 -4882 -4962 0
4818 4882 -4962 0
-4818 4882 4962 0
4818 -4882 4962 0
-4962 -4961 -4914 0
4962 4961 -4914 0
-4962 4961 4914 0
4962 -4961 4914 0
-4818 -4882 4963 0
-4818 -4961 4963 0
-4882 -4961 4963 0
4818 4882 -4963 0
4818 4961 -4963 0
4882 4961 -4963 0
-4819 -4883 -4964 0
4819 4883 -4964 0
-4819 4883 4964 0
4819 -4883 4964 0
-4964 -4963 -4915 0
4964 4963 -4915 0
-4964 4963 4915 0
4964 -4963 4915 0
-4819 -4883 4965 0
-4819 -4963 4965 0
-4883 -4963 4965 0
4819 4883 -4965 0
4819 4963 -4965 0
4883 4963 -4965 0
-4820 -4884 -4966 0
4820 4884 -4966 0
-4820 4884 4966 0
4820 -4884 4966 0
-4966 -4965 -4916 0
4966 4965 -4916 0
-4966 4965 4916 0
4966 -4965 4916 0
-4820 -4884 4967 0
-4820 -4965 4967 0
-4884 -4965 4967 0
4820 4884 -4967 0
4820 4965 -4967 0
4884 4965 -4967 0
-4821 -4885 -4968 0
4821 4885 -4968 0
-4821 4885 4968 0
4821 -4885 4968 0
-4968 -4967 -4917 0
4968 4967 -4917 0
-4968 4967 4917 0
4968 -4967 4917 0
-4821 -4885 4969 0
-4821 -4967 4969 0
-4885 -4967 4969 0
4821 4885 -4969 0
4821 4967 -4969 0
4885 4967 -4969 0
-4822 -4886 -4970 0
4822 4886 -4970 0
-4822 4886 4970 0
4822 -4886 4970 0
-4970 -4969 -4918 0
4970 4969 -4918 0
-4970 4969 4918 0
4970 -4969 4918 0
-4822 -4886 4971 0
-4822 -4969 4971 0
-4886 -4969 4971 0
4822 4886 -4971 0
4822 4969 -4971 0
4886 4969 -4971 0
-4823 -4887 -4972 0
4823 4887 -4972 0
-4823 4887 4972 0
4823 -4887 4972 0
-4972 -4971 -4919 0
4972 4971 -4919 0
-4972 4971 4919 0
4972 -4971 4919 0
-4823 -4887 4973 0
-4823 -4971 4973 0
-4887 -4971 4973 0
4823 4887 -4973 0
4823 4971 -4973 0
4887 4971 -4973 0
-4824 -4888 -4974 0
4824 4888 -4974 0
-4824 4888 4974 0
4824 -4888 4974 0
-4974 -4973 -4920 0
4974 4973 -4920 0
-4974 4973 4920 0
4974 -4973 4920 0
-4824 -4888 4975 0
-4824 -4973 4975 0
-4888 -4973 4975 0
4824 4888 -4975 0
4824 4973 -4975 0
4888 4973 -4975 0
-4825 -4889 -4976 0
4825 4889 -4976 0
-4825 4889 4976 0
4825 -4889 4976 0
-4976 -4975 -4921 0
4976 4975 -4921 0
-4976 4975 4921 0
4976 -4975 4921 0
-4825 -4889 4977 0
-4825 -4975 4977 0
-4889 -4975 4977 0
4825 4889 -4977 0
4825 4975 -4977 0
4889 4975 -4977 0
-4826 -4890 -4978 0
4826 4890 -4978 0
-4826 4890 4978 0
4826 -4890 4978 0
-4978 -4977 -4922 0
4978 4977 -4922 0
-4978 4977 4922 0
4978 -4977 4922 0
-4826 -4890 4979 0
-4826 -4977 4979 0
-4890 -4977 4979 0
4826 4890 -4979 0
4826 4977 -4979 0
4890 4977 -4979 0
-4827 -4891 -4980 0
4827 4891 -4980 0
-4827 4891 4980 0
4827 -4891 4980 0
-4980 -4979 -4923 0
4980 4979 -4923 0
-4980 4979 4923 0
4980 -4979 4923 0
-4827 -4891 4981 0
-4827 -4979 4981 0
-4891 -4979 4981 0
4827 4891 -4981 0
4827 4979 -4981 0
4891 4979 -4981 0
-4828 -4892 -4982 0
4828 4892 -4982 0
-4828 4892 4982 0
4828 -4892 4982 0
-4982 -4981 -4924 0
4982 4981 -4924 0
-4982 4981 4924 0
4982 -4981 4924 0
-4828 -4892 4983 0
-4828 -4981 4983 0
-4892 -4981 4983 0
4828 4892 -4983 0
4828 4981 -4983 0
4892 4981 -4983 0
-4829 -4893 -4984 0
4829 4893 -4984 0
-4829 4893 4984 0
4829 -4893 4984 0
-4984 -4983 -4925 0
4984 4983 -4925 0
-4984 4983 4925 0
4984 -4983 4925 0
-4829 -4893 4985 0
-4829 -4983 4985 0
-4893 -4983 4985 0
4829 4893 -4985 0
4829 4983 -4985 0
4893 4983 -4985 0
-4830 -4894 -4986 0
4830 4894 -4986 0
-4830 4894 4986 0
4830 -4894 4986 0
-4986 -4985 -4926 0
4986 4985 -4926 0
-4986 4985 4926 0
4986 -4985 4926 0
-4830 -4894 4987 0
-4830 -4985 4987 0
-4894 -4985 4987 0
4830 4894 -4987 0
4830 4985 -4987 0
4894 4985 -4987 0
-4831 -4895 -4988 0
4831 4895 -4988 0
-4831 4895 4988 0
4831 -4895 4988 0
-4988 -4987 -4927 0
4988 4987 -4927 0
-4988 4987 4927 0
4988 -4987 4927 0
-4831 -4895 4989 0
-4831 -4987 4989 0
-4895 -4987 4989 0
4831 4895 -4989 0
4831 4987 -4989 0
4895 4987 -4989 0
-4832 -4896 -4990 0
4832 4896 -4990 0
-4832 4896 4990 0
4832 -4896 4990 0
-4990 -4989 -4928 0
4990 4989 -4928 0
-4990 4989 4928 0
4990 -4989 4928 0
-1557 -4707 -4991 0
1557 4707 -4991 0
-1557 4707 4991 0
1557 -4707 4991 0
-1557 -4707 5023 0
1557 -5023 0
4707 -5023 0
-1558 -4708 -5024 0
1558 4708 -5024 0
-1558 4708 5024 0
1558 -4708 5024 0
-5024 -5023 -4992 0
5024 5023 -4992 0
-5024 5023 4992 0
5024 -5023 4992 0
-1558 -4708 5025 0
-1558 -5023 5025 0
-4708 -5023 5025 0
1558 4708 -5025 0
1558 5023 -5025 0
4708 5023 -5025 0
-1559 -4709 -5026 0
1559 4709 -5026 0
-1559 4709 5026 0
1559 -4709 5026 0
-5026 -5025 -4993 0
5026 5025 -4993 0
-5026 5025 4993 0
5026 -5025 4993 0
-1559 -4709 5027 0
-1559 -5025 5027 0
-4709 -5025 5027 0
1559 4709 -5027 0
1559 5025 -5027 0
4709 5025 -5027 0
-1560 -4710 -5028 0
1560 4710 -5028 0
-1560 4710 5028 0
1560 -4710 5028 0
-5028 -5027 -4994 0
5028 5027 -4994 0
-5028 5027 4994 0
5028 -5027 4994 0
-1560 -4710 5029 0
-1560 -5027 5029 0
-4710 -5027 5029 0
1560 4710 -5029 0
1560 5027 -5029 0
4710 5027 -5029 0
-1561 -4711 -5030 0
1561 4711 -5030 0
-1561 4711 5030 0
1561 -4711 5030 0
-5030 -5029 -4995 0
5030 5029 -4995 0
-5030 5029 4995 0
5030 -5029 4995 0
-1561 -4711 5031 0
-1561 -5029 5031 0
-4711 -5029 5031 0
1561 4711 -5031 0
1561 5029 -5031 0
4711 5029 -5031 0
-1562 -4712 -5032 0
1562 4712 -5032 0
-1562 4712 5032 0
1562 -4712 5032 0
-5032 -5031 -4996 0
5032 5031 -4996 0
-5032 5031 4996 0
5032 -5031 4996 0
-1562 -4712 5033 0
-1562 -5031 5033 0
-4712 -5031 5033 0
1562 4712 -5033 0
1562 5031 -5033 0
4712 5031 -5033 0
-1563 -4713 -5034 0
1563 4713 -5034 0
-1563 4713 5034 0
1563 -4713 5034 0
-5034 -5033 -4997 0
5034 5033 -4997 0
-5034 5033 4997 0
5034 -5033 4997 0
-1563 -4713 5035 0
-1563 -5033 5035 0
-4713 -5033 5035 0
1563 4713 -5035 0
1563 5033 -5035 0
4713 5033 -5035 0
-1564 -4714 -5036 0
1564 4714 -5036 0
-1564 4714 5036 0
1564 -4714 5036 0
-5036 -5035 -4998 0
5036 5035 -4998 0
-5036 5035 4998 0
5036 -5035 4998 0
-1564 -4714 5037 0
-1564 -5035 5037 0
-4714 -5035 5037 0
1564 4714 -5037 0
1564 5035 -5037 0
4714 5035 -5037 0
-1565 -4715 -5038 0
1565 4715 -5038 0
-1565 4715 5038 0
1565 -4715 5038 0
-5038 -5037 -4999 0
5038 5037 -4999 0
-5038 5037 4999 0
5038 -5037 4999 0
-1565 -4715 5039 0
-1565 -5037 5039 0
-4715 -5037 5039 0
1565 4715 -5039 0
1565 5037 -5039 0
4715 5037 -5039 0
-1566 -4716 -5040 0
1566 4716 -5040 0
-1566 4716 5040 0
1566 -4716 5040 0
-5040 -5039 -5000 0
5040 5039 -5000 0
-5040 5039 5000 0
5040 -5039 5000 0
-1566 -4716 5041 0
-1566 -5039 5041 0
-4716 -5039 5041 0
1566 4716 -5041 0
1566 5039 -5041 0
4716 5039 -5041 0
-1567 -4717 -5042 0
1567 4717 -5042 0
-1567 4717 5042 0
1567 -4717 5042 0
-5042 -5041 -5001 0
5042 5041 -5001 0
-5042 5041 5001 0
5042 -5041 5001 0
-1567 -4717 5043 0
-1567 -5041 5043 0
-4717 -5041 5043 0
1567 4717 -5043 0
1567 5041 -5043 0
4717 5041 -5043 0
-1568 -4718 -5044 0
1568 4718 -5044 0
-1568 4718 5044 0
1568 -4718 5044 0
-5044 -5043 -5002 0
5044 5043 -5002 0
-5044 5043 5002 0
5044 -5043 5002 0
-1568 -4718 5045 0
-1568 -5043 5045 0
-4718 -5043 5045 0
1568 4718 -5045 0
1568 5043 -5045 0
4718 5043 -5045 0
-1569 -4719 -5046 0
1569 4719 -5046 0
-1569 4719 5046 0
1569 -4719 5046 0
-5046 -5045 -5003 0
5046 5045 -5003 0
-5046 5045 5003 0
5046 -5045 5003 0
-1569 -4719 5047 0
-1569 -5045 5047 0
-4719 -5045 5047 0
1569 4719 -5047 0
1569 5045 -5047 0
4719 5045 -5047 0
-1570 -4720 -5048 0
1570 4720 -5048 0
-1570 4720 5048 0
1570 -4720 5048 0
-5048 -5047 -5004 0
5048 5047 -5004 0
-5048 5047 5004 0
5048 -5047 5004 0
-1570 -4720 5049 0
-1570 -5047 5049 0
-4720 -5047 5049 0
1570 4720 -5049 0
1570 5047 -5049 0
4720 5047 -5049 0
-1571 -4721 -5050 0
1571 4721 -5050 0
-1571 4721 5050 0
1571 -4721 5050 0
-5050 -5049 -5005 0
5050 5049 -5005 0
-5050 5049 5005 0
5050 -5049 5005 0
-1571 -4721 5051 0
-1571 -5049 5051 0
-4721 -5049 5051 0
1571 4721 -5051 0
1571 5049 -5051 0
4721 5049 -5051 0
-1572 -4722 -5052 0
1572 4722 -5052 0
-1572 4722 5052 0
1572 -4722 5052 0
-5052 -5051 -5006 0
5052 5051 -5006 0
-5052 5051 5006 0
5052 -5051 5006 0
-1572 -4722 5053 0
-1572 -5051 5053 0
-4722 -5051 5053 0
1572 4722 -5053 0
1572 5051 -5053 0
4722 5051 -5053 0
-1573 -4723 -5054 0
1573 4723 -5054 0
-1573 4723 5054 0
1573 -4723 5054 0
-5054 -5053 -5007 0
5054 5053 -5007 0
-5054 5053 5007 0
5054 -5053 5007 0
-1573 -4723 5055 0
-1573 -5053 5055 0
-4723 -5053 5055 0
1573 4723 -5055 0
1573 5053 -5055 0
4723 5053 -5055 0
-1574 -4724 -5056 0
1574 4724 -5056 0
-1574 4724 5056 0
1574 -4724 5056 0
-5056 -5055 -5008 0
5056 5055 -5008 0
-5056 5055 5008 0
5056 -5055 5008 0
-1574 -4724 5057 0
-1574 -5055 5057 0
-4724 -5055 5057 0
1574 4724 -5057 0
1574 5055 -5057 0
4724 5055 -5057 0
-1575 -4725 -5058 0
1575 4725 -5058 0
-1575 4725 5058 0
1575 -4725 5058 0
-5058 -5057 -5009 0
5058 5057 -5009 0
-5058 5057 5009 0
5058 -5057 5009 0
-1575 -4725 5059 0
-1575 -5057 5059 0
-4725 -5057 5059 0
1575 4725 -5059 0
1575 5057 -5059 0
4725 5057 -5059 0
-1576 -4726 -5060 0
1576 4726 -5060 0
-1576 4726 5060 0
1576 -4726 5060 0
-5060 -5059 -5010 0
5060 5059 -5010 0
-5060 5059 5010 0
5060 -5059 5010 0
-1576 -4726 5061 0
-1576 -5059 5061 0
-4726 -5059 5061 0
1576 4726 -5061 0
1576 5059 -5061 0
4726 5059 -5061 0
-1577 -4727 -5062 0
1577 4727 -5062 0
-1577 4727 5062 0
1577 -4727 5062 0
-5062 -5061 -5011 0
5062 5061 -5011 0
-5062 5061 5011 0
5062 -5061 5011 0
-1577 -4727 5063 0
-1577 -5061 5063 0
-4727 -5061 5063 0
1577 4727 -5063 0
1577 5061 -5063 0
4727 5061 -5063 0
-1578 -4728 -5064 0
1578 4728 -5064 0
-1578 4728 5064 0
1578 -4728 5064 0
-5064 -5063 -5012 0
5064 5063 -5012 0
-5064 5063 5012 0
5064 -5063 5012 0
-1578 -4728 5065 0
-1578 -5063 5065 0
-4728 -5063 5065 0
1578 4728 -5065 0
1578 5063 -5065 0
4728 5063 -5065 0
-1579 -4729 -5066 0
1579 4729 -5066 0
-1579 4729 5066 0
1579 -4729 5066 0
-5066 -5065 -5013 0
5066 5065 -5013 0
-5066 5065 5013 0
5066 -5065 5013 0
-1579 -4729 5067 0
-1579 -5065 5067 0
-4729 -5065 5067 0
1579 4729 -5067 0
1579 5065 -5067 0
4729 5065 -5067 0
-1580 -4730 -5068 0
1580 4730 -5068 0
-1580 4730 5068 0
1580 -4730 5068 0
-5068 -5067 -5014 0
5068 5067 -5014 0
-5068 5067 5014 0
5068 -5067 5014 0
-1580 -4730 5069 0
-1580 -5067 5069 0
-4730 -5067 5069 0
1580 4730 -5069 0
1580 5067 -5069 0
4730 5067 -5069 0
-1581 -4731 -5070 0
1581 4731 -5070 0
-1581 4731 5070 0
1581 -4731 5070 0
-5070 -5069 -5015 0
5070 5069 -5015 0
-5070 5069 5015 0
5070 -5069 5015 0
-1581 -4731 5071 0
-1581 -5069 5071 0
-4731 -5069 5071 0
1581 4731 -5071 0
1581 5069 -5071 0
4731 5069 -5071 0
-1582 -4732 -5072 0
1582 4732 -5072 0
-1582 4732 5072 0
1582 -4732 5072 0
-5072 -5071 -5016 0
5072 5071 -5016 0
-5072 5071 5016 0
5072 -5071 5016 0
-1582 -4732 5073 0
-1582 -5071 5073 0
-4732 -5071 5073 0
1582 4732 -5073 0
1582 5071 -5073 0
4732 5071 -5073 0
-1583 -4733 -5074 0
1583 4733 -5074 0
-1583 4733 5074 0
1583 -4733 5074 0
-5074 -5073 -5017 0
5074 5073 -5017 0
-5074 5073 5017 0
5074 -5073 5017 0
-1583 -4733 5075 0
-1583 -5073 5075 0
-4733 -5073 5075 0
1583 4733 -5075 0
1583 5073 -5075 0
4733 5073 -5075 0
-1584 -4734 -5076 0
1584 4734 -5076 0
-1584 4734 5076 0
1584 -4734 5076 0
-5076 -5075 -5018 0
5076 5075 -5018 0
-5076 5075 5018 0
5076 -5075 5018 0
-1584 -4734 5077 0
-1584 -5075 5077 0
-4734 -5075 5077 0
1584 4734 -5077 0
1584 5075 -5077 0
4734 5075 -5077 0
-1585 -4735 -5078 0
1585 4735 -5078 0
-1585 4735 5078 0
1585 -4735 5078 0
-5078 -5077 -5019 0
5078 5077 -5019 0
-5078 5077 5019 0
5078 -5077 5019 0
-1585 -4735 5079 0
-1585 -5077 5079 0
-4735 -5077 5079 0
1585 4735 -5079 0
1585 5077 -5079 0
4735 5077 -5079 0
-1586 -4736 -5080 0
1586 4736 -5080 0
-1586 4736 5080 0
1586 -4736 5080 0
-5080 -5079 -5020 0
5080 5079 -5020 0
-5080 5079 5020 0
5080 -5079 5020 0
-1586 -4736 5081 0
-1586 -5079 5081 0
-4736 -5079 5081 0
1586 4736 -5081 0
1586 5079 -5081 0
4736 5079 -5081 0
-1587 -4737 -5082 0
1587 4737 -5082 0
-1587 4737 5082 0
1587 -4737 5082 0
-5082 -5081 -5021 0
5082 5081 -5021 0
-5082 5081 5021 0
5082 -5081 5021 0
-1587 -4737 5083 0
-1587 -5081 5083 0
-4737 -5081 5083 0
1587 4737 -5083 0
1587 5081 -5083 0
4737 5081 -5083 0
-1588 -4738 -5084 0
1588 4738 -5084 0
-1588 4738 5084 0
1588 -4738 5084 0
-5084 -5083 -5022 0
5084 5083 -5022 0
-5084 5083 5022 0
5084 -5083 5022 0
-4707 -4897 -5085 0
4707 4897 -5085 0
-4707 4897 5085 0
4707 -4897 5085 0
-4707 -4897 5117 0
4707 -5117 0
4897 -5117 0
-4708 -4898 -5118 0
4708 4898 -5118 0
-4708 4898 5118 0
4708 -4898 5118 0
-5118 -5117 -5086 0
5118 5117 -5086 0
-5118 5117 5086 0
5118 -5117 5086 0
-4708 -4898 5119 0
-4708 -5117 5119 0
-4898 -5117 5119 0
4708 4898 -5119 0
4708 5117 -5119 0
4898 5117 -5119 0
-4709 -4899 -5120 0
4709 4899 -5120 0
-4709 4899 5120 0
4709 -4899 5120 0
-5120 -5119 -5087 0
5120 5119 -5087 0
-5120 5119 5087 0
5120 -5119 5087 0
-4709 -4899 5121 0
-4709 -5119 5121 0
-4899 -5119 5121 0
4709 4899 -5121 0
4709 5119 -5121 0
4899 5119 -5121 0
-4710 -4900 -5122 0
4710 4900 -5122 0
-4710 4900 5122 0
4710 -4900 5122 0
-5122 -5121 -5088 0
5122 5121 -5088 0
-5122 5121 5088 0
5122 -5121 5088 0
-4710 -4900 5123 0
-4710 -5121 5123 0
-4900 -5121 5123 0
4710 4900 -5123 0
4710 5121 -5123 0
4900 5121 -5123 0
-4711 -4901 -5124 0
4711 4901 -5124 0
-4711 4901 5124 0
4711 -4901 5124 0
-5124 -5123 -5089 0
5124 5123 -5089 0
-5124 5123 5089 0
5124 -5123 5089 0
-4711 -4901 5125 0
-4711 -5123 5125 0
-4901 -5123 5125 0
4711 4901 -5125 0
4711 5123 -5125 0
4901 5123 -5125 0
-4712 -4902 -5126 0
4712 4902 -5126 0
-4712 4902 5126 0
4712 -4902 5126 0
-5126 -5125 -5090 0
5126 5125 -5090 0
-5126 5125 5090 0
5126 -5125 5090 0
-4712 -4902 5127 0
-4712 -5125 5127 0
-4902 -5125 5127 0
4712 4902 -5127 0
4712 5125 -5127 0
4902 5125 -5127 0
-4713 -4903 -5128 0
4713 4903 -5128 0
-4713 4903 5128 0
4713 -4903 5128 0
-5128 -5127 -5091 0
5128 5127 -5091 0
-5128 5127 5091 0
5128 -5127 5091 0
-4713 -4903 5129 0
-4713 -5127 5129 0
-4903 -5127 5129 0
4713 4903 -5129 0
4713 5127 -5129 0
4903 5127 -5129 0
-4714 -4904 -5130 0
4714 4904 -5130 0
-4714 4904 5130 0
4714 -4904 5130 0
-5130 -5129 -5092 0
5130 5129 -5092 0
-5130 5129 5092 0
5130 -5129 5092 0
-4714 -4904 5131 0
-4714 -5129 5131 0
-4904 -5129 5131 0
4714 4904 -5131 0
4714 5129 -5131 0
4904 5129 -5131 0
-4715 -4905 -5132 0
4715 4905 -5132 0
-4715 4905 5132 0
4715 -4905 5132 0
-5132 -5131 -5093 0
5132 5131 -5093 0
-5132 5131 5093 0
5132 -5131 5093 0
-4715 -4905 5133 0
-4715 -5131 5133 0
-4905 -5131 5133 0
4715 4905 -5133 0
4715 5131 -5133 0
4905 5131 -5133 0
-4716 -4906 -5134 0
4716 4906 -5134 0
-4716 4906 5134 0
4716 -4906 5134 0
-5134 -5133 -5094 0
5134 5133 -5094 0
-5134 5133 5094 0
5134 -5133 5094 0
-4716 -4906 5135 0
-4716 -5133 5135 0
-4906 -5133 5135 0
4716 4906 -5135 0
4716 5133 -5135 0
4906 5133 -5135 0
-4717 -4907 -5136 0
4717 4907 -5136 0
-4717 4907 5136 0
4717 -4907 5136 0
-5136 -5135 -5095 0
5136 5135 -5095 0
-5136 5135 5095 0
5136 -5135 5095 0
-4717 -4907 5137 0
-4717 -5135 5137 0
-4907 -5135 5137 0
4717 4907 -5137 0
4717 5135 -5137 0
4907 5135 -5137 0
-4718 -4908 -5138 0
4718 4908 -5138 0
-4718 4908 5138 0
4718 -4908 5138 0
-5138 -5137 -5096 0
5138 5137 -5096 0
-5138 5137 5096 0
5138 -5137 5096 0
-4718 -4908 5139 0
-4718 -5137 5139 0
-4908 -5137 5139 0
4718 4908 -5139 0
4718 5137 -5139 0
4908 5137 -5139 0
-4719 -4909 -5140 0
4719 4909 -5140 0
-4719 4909 5140 0
4719 -4909 5140 0
-5140 -5139 -5097 0
5140 5139 -5097 0
-5140 5139 5097 0
5140 -5139 5097 0
-4719 -4909 5141 0
-4719 -5139 5141 0
-4909 -5139 5141 0
4719 4909 -5141 0
4719 5139 -5141 0
4909 5139 -5141 0
-4720 -4910 -5142 0
4720 4910 -5142 0
-4720 4910 5142 0
4720 -4910 5142 0
-5142 -5141 -5098 0
5142 5141 -5098 0
-5142 5141 5098 0
5142 -5141 5098 0
-4720 -4910 5143 0
-4720 -5141 5143 0
-4910 -5141 5143 0
4720 4910 -5143 0
4720 5141 -5143 0
4910 5141 -5143 0
-4721 -4911 -5144 0
4721 4911 -5144 0
-4721 4911 5144 0
4721 -4911 5144 0
-5144 -5143 -5099 0
5144 5143 -5099 0
-5144 5143 5099 0
5144 -5143 5099 0
-4721 -4911 5145 0
-4721 -5143 5145 0
-4911 -5143 5145 0
4721 4911 -5145 0
4721 5143 -5145 0
4911 5143 -5145 0
-4722 -4912 -5146 0
4722 4912 -5146 0
-4722 4912 5146 0
4722 -4912 5146 0
-5146 -5145 -5100 0
5146 5145 -5100 0
-5146 5145 5100 0
5146 -5145 5100 0
-4722 -4912 5147 0
-4722 -5145 5147 0
-4912 -5145 5147 0
4722 4912 -5147 0
4722 5145 -5147 0
4912 5145 -5147 0
-4723 -4913 -5148 0
4723 4913 -5148 0
-4723 4913 5148 0
4723 -4913 5148 0
-5148 -5147 -5101 0
5148 5147 -5101 0
-5148 5147 5101 0
5148 -5147 5101 0
-4723 -4913 5149 0
-4723 -5147 5149 0
-4913 -5147 5149 0
4723 4913 -5149 0
4723 5147 -5149 0
4913 5147 -5149 0
-4724 -4914 -5150 0
4724 4914 -5150 0
-4724 4914 5150 0
4724 -4914 5150 0
-5150 -5149 -5102 0
5150 5149 -5102 0
-5150 5149 5102 0
5150 -5149 5102 0
-4724 -4914 5151 0
-4724 -5149 5151 0
-4914 -5149 5151 0
4724 4914 -5151 0
4724 5149 -5151 0
4914 5149 -5151 0
-4725 -4915 -5152 0
4725 4915 -5152 0
-4725 4915 5152 0
4725 -4915 5152 0
-5152 -5151 -5103 0
5152 5151 -5103 0
-5152 5151 5103 0
5152 -5151 5103 0
-4725 -4915 5153 0
-4725 -5151 5153 0
-4915 -5151 5153 0
4725 4915 -5153 0
4725 5151 -5153 0
4915 5151 -5153 0
-4726 -4916 -5154 0
4726 4916 -5154 0
-4726 4916 5154 0
4726 -4916 5154 0
-5154 -5153 -5104 0
5154 5153 -5104 0
-5154 5153 5104 0
5154 -5153 5104 0
-4726 -4916 5155 0
-4726 -5153 5155 0
-4916 -5153 5155 0
4726 4916 -5155 0
4726 5153 -5155 0
4916 5153 -5155 0
-4727 -4917 -5156 0
4727 4917 -5156 0
-4727 4917 5156 0
4727 -4917 5156 0
-5156 -5155 -5105 0
5156 5155 -5105 0
-5156 5155 5105 0
5156 -5155 5105 0
-4727 -4917 5157 0
-4727 -5155 5157 0
-4917 -5155 5157 0
4727 4917 -5157 0
4727 5155 -5157 0
4917 5155 -5157 0
-4728 -4918 -5158 0
4728 4918 -5158 0
-4728 4918 5158 0
4728 -4918 5158 0
-5158 -5157 -5106 0
5158 5157 -5106 0
-5158 5157 5106 0
5158 -5157 5106 0
-4728 -4918 5159 0
-4728 -5157 5159 0
-4918 -5157 5159 0
4728 4918 -5159 0
4728 5157 -5159 0
4918 5157 -5159 0
-4729 -4919 -5160 0
4729 4919 -5160 0
-4729 4919 5160 0
4729 -4919 5160 0
-5160 -5159 -5107 0
5160 5159 -5107 0
-5160 5159 5107 0
5160 -5159 5107 0
-4729 -4919 5161 0
-4729 -5159 5161 0
-4919 -5159 5161 0
4729 4919 -5161 0
4729 5159 -5161 0
4919 5159 -5161 0
-4730 -4920 -5162 0
4730 4920 -5162 0
-4730 4920 5162 0
4730 -4920 5162 0
-5162 -5161 -5108 0
5162 5161 -5108 0
-5162 5161 5108 0
5162 -5161 5108 0
-4730 -4920 5163 0
-4730 -5161 5163 0
-4920 -5161 5163 0
4730 4920 -5163 0
4730 5161 -5163 0
4920 5161 -5163 0
-4731 -4921 -5164 0
4731 4921 -5164 0
-4731 4921 5164 0
4731 -4921 5164 0
-5164 -5163 -5109 0
5164 5163 -5109 0
-5164 5163 5109 0
5164 -5163 5109 0
-4731 -4921 5165 0
-4731 -5163 5165 0
-4921 -5163 5165 0
4731 4921 -5165 0
4731 5163 -5165 0
4921 5163 -5165 0
-4732 -4922 -5166 0
4732 4922 -5166 0
-4732 4922 5166 0
4732 -4922 5166 0
-5166 -5165 -5110 0
5166 5165 -5110 0
-5166 5165 5110 0
5166 -5165 5110 0
-4732 -4922 5167 0
-4732 -5165 5167 0
-4922 -5165 5167 0
4732 4922 -5167 0
4732 5165 -5167 0
4922 5165 -5167 0
-4733 -4923 -5168 0
4733 4923 -5168 0
-4733 4923 5168 0
4733 -4923 5168 0
-5168 -5167 -5111 0
5168 5167 -5111 0
-5168 5167 5111 0
5168 -5167 5111 0
-4733 -4923 5169 0
-4733 -5167 5169 0
-4923 -5167 5169 0
4733 4923 -5169 0
4733 5167 -5169 0
4923 5167 -5169 0
-4734 -4924 -5170 0
4734 4924 -5170 0
-4734 4924 5170 0
4734 -4924 5170 0
-5170 -5169 -5112 0
5170 5169 -5112 0
-5170 5169 5112 0
5170 -5169 5112 0
-4734 -4924 5171 0
-4734 -5169 5171 0
-4924 -5169 5171 0
4734 4924 -5171 0
4734 5169 -5171 0
4924 5169 -5171 0
-4735 -4925 -5172 0
4735 4925 -5172 0
-4735 4925 5172 0
4735 -4925 5172 0
-5172 -5171 -5113 0
5172 5171 -5113 0
-5172 5171 5113 0
5172 -5171 5113 0
-4735 -4925 5173 0
-4735 -5171 5173 0
-4925 -5171 5173 0
4735 4925 -5173 0
4735 5171 -5173 0
4925 5171 -5173 0
-4736 -4926 -5174 0
4736 4926 -5174 0
-4736 4926 5174 0
4736 -4926 5174 0
-5174 -5173 -5114 0
5174 5173 -5114 0
-5174 5173 5114 0
5174 -5173 5114 0
-4736 -4926 5175 0
-4736 -5173 5175 0
-4926 -5173 5175 0
4736 4926 -5175 0
4736 5173 -5175 0
4926 5173 -5175 0
-4737 -4927 -5176 0
4737 4927 -5176 0
-4737 4927 5176 0
4737 -4927 5176 0
-5176 -5175 -5115 0
5176 5175 -5115 0
-5176 5175 5115 0
5176 -5175 5115 0
-4737 -4927 5177 0
-4737 -5175 5177 0
-4927 -5175 5177 0
4737 4927 -5177 0
4737 5175 -5177 0
4927 5175 -5177 0
-4738 -4928 -5178 0
4738 4928 -5178 0
-4738 4928 5178 0
4738 -4928 5178 0
-5178 -5177 -5116 0
5178 5177 -5116 0
-5178 5177 5116 0
5178 -5177 5116 0
-4997 -5002 -5211 0
4997 5002 -5211 0
-4997 5002 5211 0
4997 -5002 5211 0
-5211 -5016 -5179 0
5211 5016 -5179 0
-5211 5016 5179 0
5211 -5016 5179 0
-4998 -5003 -5212 0
4998 5003 -5212 0
-4998 5003 5212 0
4998 -5003 5212 0
-5212 -5017 -5180 0
5212 5017 -5180 0
-5212 5017 5180 0
5212 -5017 5180 0
-4999 -5004 -5213 0
4999 5004 -5213 0
-4999 5004 5213 0
4999 -5004 5213 0
-5213 -5018 -5181 0
5213 5018 -5181 0
-5213 5018 5181 0
5213 -5018 5181 0
-5000 -5005 -5214 0
5000 5005 -5214 0
-5000 5005 5214 0
5000 -5005 5214 0
-5214 -5019 -5182 0
5214 5019 -5182 0
-5214 5019 5182 0
5214 -5019 5182 0
-5001 -5006 -5215 0
5001 5006 -5215 0
-5001 5006 5215 0
5001 -5006 5215 0
-5215 -5020 -5183 0
5215 5020 -5183 0
-5215 5020 5183 0
5215 -5020 5183 0
-5002 -5007 -5216 0
5002 5007 -5216 0
-5002 5007 5216 0
5002 -5007 5216 0
-5216 -5021 -5184 0
5216 5021 -5184 0
-5216 5021 5184 0
5216 -5021 5184 0
-5003 -5008 -5217 0
5003 5008 -5217 0
-5003 5008 5217 0
5003 -5008 5217 0
-5217 -5022 -5185 0
5217 5022 -5185 0
-5217 5022 5185 0
5217 -5022 5185 0
-5004 -5009 -5218 0
5004 5009 -5218 0
-5004 5009 5218 0
5004 -5009 5218 0
-5218 -4991 -5186 0
5218 4991 -5186 0
-5218 4991 5186 0
5218 -4991 5186 0
-5005 -5010 -5219 0
5005 5010 -5219 0
-5005 5010 5219 0
5005 -5010 5219 0
-5219 -4992 -5187 0
5219 4992 -5187 0
-5219 4992 5187 0
5219 -4992 5187 0
-5006 -5011 -5220 0
5006 5011 -5220 0
-5006 5011 5220 0
5006 -5011 5220 0
-5220 -4993 -5188 0
5220 4993 -5188 0
-5220 4993 5188 0
5220 -4993 5188 0
-5007 -5012 -5221 0
5007 5012 -5221 0
-5007 5012 5221 0
5007 -5012 5221 0
-5221 -4994 -5189 0
5221 4994 -5189 0
-5221 4994 5189 0
5221 -4994 5189 0
-5008 -5013 -5222 0
5008 5013 -5222 0
-5008 5013 5222 0
5008 -5013 5222 0
-5222 -4995 -5190 0
5222 4995 -5190 0
-5222 4995 5190 0
5222 -4995 5190 0
-5009 -5014 -5223 0
5009 5014 -5223 0
-5009 5014 5223 0
5009 -5014 5223 0
-5223 -4996 -5191 0
5223 4996 -5191 0
-5223 4996 5191 0
5223 -4996 5191 0
-5010 -5015 -5224 0
5010 5015 -5224 0
-5010 5015 5224 0
5010 -5015 5224 0
-5224 -4997 -5192 0
5224 4997 -5192 0
-5224 4997 5192 0
5224 -4997 5192 0
-5011 -5016 -5225 0
5011 5016 -5225 0
-5011 5016 5225 0
5011 -5016 5225 0
-5225 -4998 -5193 0
5225 4998 -5193 0
-5225 4998 5193 0
5225 -4998 5193 0
-5012 -5017 -5226 0
5012 5017 -5226 0
-5012 5017 5226 0
5012 -5017 5226 0
-5226 -4999 -5194 0
5226 4999 -5194 0
-5226 4999 5194 0
5226 -4999 5194 0
-5013 -5018 -5227 0
5013 5018 -5227 0
-5013 5018 5227 0
5013 -5018 5227 0
-5227 -5000 -5195 0
5227 5000 -5195 0
-5227 5000 5195 0
5227 -5000 5195 0
-5014 -5019 -5228 0
5014 5019 -5228 0
-5014 5019 5228 0
5014 -5019 5228 0
-5228 -5001 -5196 0
5228 5001 -5196 0
-5228 5001 5196 0
5228 -5001 5196 0
-5015 -5020 -5229 0
5015 5020 -5229 0
-5015 5020 5229 0
5015 -5020 5229 0
-5229 -5002 -5197 0
5229 5002 -5197 0
-5229 5002 5197 0
5229 -5002 5197 0
-5016 -5021 -5230 0
5016 5021 -5230 0
-5016 5021 5230 0
5016 -5021 5230 0
-5230 -5003 -5198 0
5230 5003 -5198 0
-5230 5003 5198 0
5230 -5003 5198 0
-5017 -5022 -5231 0
5017 5022 -5231 0
-5017 5022 5231 0
5017 -5022 5231 0
-5231 -5004 -5199 0
5231 5004 -5199 0
-5231 5004 5199 0
5231 -5004 5199 0
-5018 -4991 -5232 0
5018 4991 -5232 0
-5018 4991 5232 0
5018 -4991 5232 0
-5232 -5005 -5200 0
5232 5005 -5200 0
-5232 5005 5200 0
5232 -5005 5200 0
-5019 -4992 -5233 0
5019 4992 -5233 0
-5019 4992 5233 0
5019 -4992 5233 0
-5233 -5006 -5201 0
5233 5006 -5201 0
-5233 5006 5201 0
5233 -5006 5201 0
-5020 -4993 -5234 0
5020 4993 -5234 0
-5020 4993 5234 0
5020 -4993 5234 0
-5234 -5007 -5202 0
5234 5007 -5202 0
-5234 5007 5202 0
5234 -5007 5202 0
-5021 -4994 -5235 0
5021 4994 -5235 0
-5021 4994 5235 0
5021 -4994 5235 0
-5235 -5008 -5203 0
5235 5008 -5203 0
-5235 5008 5203 0
5235 -5008 5203 0
-5022 -4995 -5236 0
5022 4995 -5236 0
-5022 4995 5236 0
5022 -4995 5236 0
-5236 -5009 -5204 0
5236 5009 -5204 0
-5236 5009 5204 0
5236 -5009 5204 0
-4991 -4996 -5237 0
4991 4996 -5237 0
-4991 4996 5237 0
4991 -4996 5237 0
-5237 -5010 -5205 0
5237 5010 -5205 0
-5237 5010 5205 0
5237 -5010 5205 0
-4992 -4997 -5238 0
4992 4997 -5238 0
-4992 4997 5238 0
4992 -4997 5238 0
-5238 -5011 -5206 0
5238 5011 -5206 0
-5238 5011 5206 0
5238 -5011 5206 0
-4993 -4998 -5239 0
4993 4998 -5239 0
-4993 4998 5239 0
4993 -4998 5239 0
-5239 -5012 -5207 0
5239 5012 -5207 0
-5239 5012 5207 0
5239 -5012 5207 0
-4994 -4999 -5240 0
4994 4999 -5240 0
-4994 4999 5240 0
4994 -4999 5240 0
-5240 -5013 -5208 0
5240 5013 -5208 0
-5240 5013 5208 0
5240 -5013 5208 0
-4995 -5000 -5241 0
4995 5000 -5241 0
-4995 5000 5241 0
4995 -5000 5241 0
-5241 -5014 -5209 0
5241 5014 -5209 0
-5241 5014 5209 0
5241 -5014 5209 0
-4996 -5001 -5242 0
4996 5001 -5242 0
-4996 5001 5242 0
4996 -5001 5242 0
-5242 -5015 -5210 0
5242 5015 -5210 0
-5242 5015 5210 0
5242 -5015 5210 0
-4991 -4109 5243 0
-4991 4109 -5243 0
4991 -3227 5243 0
4991 3227 -5243 0
-4992 -4110 5244 0
-4992 4110 -5244 0
4992 -3228 5244 0
4992 3228 -5244 0
-4993 -4111 5245 0
-4993 4111 -5245 0
4993 -3229 5245 0
4993 3229 -5245 0
-4994 -4112 5246 0
-4994 4112 -5246 0
4994 -3230 5246 0
4994 3230 -5246 0
-4995 -4113 5247 0
-4995 4113 -5247 0
4995 -3231 5247 0
4995 3231 -5247 0
-4996 -4114 5248 0
-4996 4114 -5248 0
4996 -3232 5248 0
4996 3232 -5248 0
-4997 -4115 5249 0
-4997 4115 -5249 0
4997 -3233 5249 0
4997 3233 -5249 0
-4998 -4116 5250 0
-4998 4116 -5250 0
4998 -3234 5250 0
4998 3234 -5250 0
-4999 -4117 5251 0
-4999 4117 -5251 0
4999 -3235 5251 0
4999 3235 -5251 0
-5000 -4118 5252 0
-5000 4118 -5252 0
5000 -3236 5252 0
5000 3236 -5252 0
-5001 -4119 5253 0
-5001 4119 -5253 0
5001 -3237 5253 0
5001 3237 -5253 0
-5002 -4120 5254 0
-5002 4120 -5254 0
5002 -3238 5254 0
5002 3238 -5254 0
-5003 -4121 5255 0
-5003 4121 -5255 0
5003 -3239 5255 0
5003 3239 -5255 0
-5004 -4122 5256 0
-5004 4122 -5256 0
5004 -3240 5256 0
5004 3240 -5256 0
-5005 -4123 5257 0
-5005 4123 -5257 0
5005 -3241 5257 0
5005 3241 -5257 0
-5006 -4124 5258 0
-5006 4124 -5258 0
5006 -3242 5258 0
5006 3242 -5258 0
-5007 -4125 5259 0
-5007 4125 -5259 0
5007 -3243 5259 0
5007 3243 -5259 0
-5008 -4126 5260 0
-5008 4126 -5260 0
5008 -3244 5260 0
5008 3244 -5260 0
-5009 -4127 5261 0
-5009 4127 -5261 0
5009 -3245 5261 0
5009 3245 -5261 0
-5010 -4128 5262 0
-5010 4128 -5262 0
5010 -3246 5262 0
5010 3246 -5262 0
-5011 -4129 5263 0
-5011 4129 -5263 0
5011 -3247 5263 0
5011 3247 -5263 0
-5012 -4130 5264 0
-5012 4130 -5264 0
5012 -3248 5264 0
5012 3248 -5264 0
-5013 -4131 5265 0
-5013 4131 -5265 0
5013 -3249 5265 0
5013 3249 -5265 0
-5014 -4132 5266 0
-5014 4132 -5266 0
5014 -3250 5266 0
5014 3250 -5266 0
-5015 -4133 5267 0
-5015 4133 -5267 0
5015 -3251 5267 0
5015 3251 -5267 0
-5016 -4134 5268 0
-5016 4134 -5268 0
5016 -3252 5268 0
5016 3252 -5268 0
-5017 -4135 5269 0
-5017 4135 -5269 0
5017 -3253 5269 0
5017 3253 -5269 0
-5018 -4136 5270 0
-5018 4136 -5270 0
5018 -3254 5270 0
5018 3254 -5270 0
-5019 -4137 5271 0
-5019 4137 -5271 0
5019 -3255 5271 0
5019 3255 -5271 0
-5020 -4138 5272 0
-5020 4138 -5272 0
5020 -3256 5272 0
5020 3256 -5272 0
-5021 -4139 5273 0
-5021 4139 -5273 0
5021 -3257 5273 0
5021 3257 -5273 0
-5022 -4140 5274 0
-5022 4140 -5274 0
5022 -3258 5274 0
5022 3258 -5274 0
-2345 -5179 -5275 0
2345 5179 -5275 0
-2345 5179 5275 0
2345 -5179 5275 0
-2345 -5179 5307 0
2345 -5307 0
5179 -5307 0
-2346 -5180 -5308 0
2346 5180 -5308 0
-2346 5180 5308 0
2346 -5180 5308 0
-5308 -5307 -5276 0
5308 5307 -5276 0
-5308 5307 5276 0
5308 -5307 5276 0
-2346 -5180 5309 0
-2346 -5307 5309 0
-5180 -5307 5309 0
2346 5180 -5309 0
2346 5307 -5309 0
5180 5307 -5309 0
-2347 -5181 -5310 0
2347 5181 -5310 0
-2347 5181 5310 0
2347 -5181 5310 0
-5310 -5309 -5277 0
5310 5309 -5277 0
-5310 5309 5277 0
5310 -5309 5277 0
-2347 -5181 5311 0
-2347 -5309 5311 0
-5181 -5309 5311 0
2347 5181 -5311 0
2347 5309 -5311 0
5181 5309 -5311 0
-2348 -5182 -5312 0
2348 5182 -5312 0
-2348 5182 5312 0
2348 -5182 5312 0
-5312 -5311 -5278 0
5312 5311 -5278 0
-5312 5311 5278 0
5312 -5311 5278 0
-2348 -5182 5313 0
-2348 -5311 5313 0
-5182 -5311 5313 0
2348 5182 -5313 0
2348 5311 -5313 0
5182 5311 -5313 0
-2349 -5183 -5314 0
2349 5183 -5314 0
-2349 5183 5314 0
2349 -5183 5314 0
-5314 -5313 -5279 0
5314 5313 -5279 0
-5314 5313 5279 0
5314 -5313 5279 0
-2349 -5183 5315 0
-2349 -5313 5315 0
-5183 -5313 5315 0
2349 5183 -5315 0
2349 5313 -5315 0
5183 5313 -5315 0
-2350 -5184 -5316 0
2350 5184 -5316 0
-2350 5184 5316 0
2350 -5184 5316 0
-5316 -5315 -5280 0
5316 5315 -5280 0
-5316 5315 5280 0
5316 -5315 5280 0
-2350 -5184 5317 0
-2350 -5315 5317 0
-5184 -5315 5317 0
2350 5184 -5317 0
2350 5315 -5317 0
5184 5315 -5317 0
-2351 -5185 -5318 0
2351 5185 -5318 0
-2351 5185 5318 0
2351 -5185 5318 0
-5318 -5317 -5281 0
5318 5317 -5281 0
-5318 5317 5281 0
5318 -5317 5281 0
-2351 -5185 5319 0
-2351 -5317 5319 0
-5185 -5317 5319 0
2351 5185 -5319 0
2351 5317 -5319 0
5185 5317 -5319 0
-2352 -5186 -5320 0
2352 5186 -5320 0
-2352 5186 5320 0
2352 -5186 5320 0
-5320 -5319 -5282 0
5320 5319 -5282 0
-5320 5319 5282 0
5320 -5319 5282 0
-2352 -5186 5321 0
-2352 -5319 5321 0
-5186 -5319 5321 0
2352 5186 -5321 0
2352 5319 -5321 0
5186 5319 -5321 0
-2353 -5187 -5322 0
2353 5187 -5322 0
-2353 5187 5322 0
2353 -5187 5322 0
-5322 -5321 -5283 0
5322 5321 -5283 0
-5322 5321 5283 0
5322 -5321 5283 0
-2353 -5187 5323 0
-2353 -5321 5323 0
-5187 -5321 5323 0
2353 5187 -5323 0
2353 5321 -5323 0
5187 5321 -5323 0
-2354 -5188 -5324 0
2354 5188 -5324 0
-2354 5188 5324 0
2354 -5188 5324 0
-5324 -5323 -5284 0
5324 5323 -5284 0
-5324 5323 5284 0
5324 -5323 5284 0
-2354 -5188 5325 0
-2354 -5323 5325 0
-5188 -5323 5325 0
2354 5188 -5325 0
2354 5323 -5325 0
5188 5323 -5325 0
-2355 -5189 -5326 0
2355 5189 -5326 0
-2355 5189 5326 0
2355 -5189 5326 0
-5326 -5325 -5285 0
5326 5325 -5285 0
-5326 5325 5285 0
5326 -5325 5285 0
-2355 -5189 5327 0
-2355 -5325 5327 0
-5189 -5325 5327 0
2355 5189 -5327 0
2355 5325 -5327 0
5189 5325 -5327 0
-2356 -5190 -5328 0
2356 5190 -5328 0
-2356 5190 5328 0
2356 -5190 5328 0
-5328 -5327 -5286 0
5328 5327 -5286 0
-5328 5327 5286 0
5328 -5327 5286 0
-2356 -5190 5329 0
-2356 -5327 5329 0
-5190 -5327 5329 0
2356 5190 -5329 0
2356 5327 -5329 0
5190 5327 -5329 0
-2357 -5191 -5330 0
2357 5191 -5330 0
-2357 5191 5330 0
2357 -5191 5330 0
-5330 -5329 -5287 0
5330 5329 -5287 0
-5330 5329 5287 0
5330 -5329 5287 0
-2357 -5191 5331 0
-2357 -5329 5331 0
-5191 -5329 5331 0
2357 5191 -5331 0
2357 5329 -5331 0
5191 5329 -5331 0
-2358 -5192 -5332 0
2358 5192 -5332 0
-2358 5192 5332 0
2358 -5192 5332 0
-5332 -5331 -5288 0
5332 5331 -5288 0
-5332 5331 5288 0
5332 -5331 5288 0
-2358 -5192 5333 0
-2358 -5331 5333 0
-5192 -5331 5333 0
2358 5192 -5333 0
2358 5331 -5333 0
5192 5331 -5333 0
-2359 -5193 -5334 0
2359 5193 -5334 0
-2359 5193 5334 0
2359 -5193 5334 0
-5334 -5333 -5289 0
5334 5333 -5289 0
-5334 5333 5289 0
5334 -5333 5289 0
-2359 -5193 5335 0
-2359 -5333 5335 0
-5193 -5333 5335 0
2359 5193 -5335 0
2359 5333 -5335 0
5193 5333 -5335 0
-2360 -5194 -5336 0
2360 5194 -5336 0
-2360 5194 5336 0
2360 -5194 5336 0
-5336 -5335 -5290 0
5336 5335 -5290 0
-5336 5335 5290 0
5336 -5335 5290 0
-2360 -5194 5337 0
-2360 -5335 5337 0
-5194 -5335 5337 0
2360 5194 -5337 0
2360 5335 -5337 0
5194 5335 -5337 0
-2361 -5195 -5338 0
2361 5195 -5338 0
-2361 5195 5338 0
2361 -5195 5338 0
-5338 -5337 -5291 0
5338 5337 -5291 0
-5338 5337 5291 0
5338 -5337 5291 0
-2361 -5195 5339 0
-2361 -5337 5339 0
-5195 -5337 5339 0
2361 5195 -5339 0
2361 5337 -5339 0
5195 5337 -5339 0
-2362 -5196 -5340 0
2362 5196 -5340 0
-2362 5196 5340 0
2362 -5196 5340 0
-5340 -5339 -5292 0
5340 5339 -5292 0
-5340 5339 5292 0
5340 -5339 5292 0
-2362 -5196 5341 0
-2362 -5339 5341 0
-5196 -5339 5341 0
2362 5196 -5341 0
2362 5339 -5341 0
5196 5339 -5341 0
-2363 -5197 -5342 0
2363 5197 -5342 0
-2363 5197 5342 0
2363 -5197 5342 0
-5342 -5341 -5293 0
5342 5341 -5293 0
-5342 5341 5293 0
5342 -5341 5293 0
-2363 -5197 5343 0
-2363 -5341 5343 0
-5197 -5341 5343 0
2363 5197 -5343 0
2363 5341 -5343 0
5197 5341 -5343 0
-2364 -5198 -5344 0
2364 5198 -5344 0
-2364 5198 5344 0
2364 -5198 5344 0
-5344 -5343 -5294 0
5344 5343 -5294 0
-5344 5343 5294 0
5344 -5343 5294 0
-2364 -5198 5345 0
-2364 -5343 5345 0
-5198 -5343 5345 0
2364 5198 -5345 0
2364 5343 -5345 0
5198 5343 -5345 0
-2365 -5199 -5346 0
2365 5199 -5346 0
-2365 5199 5346 0
2365 -5199 5346 0
-5346 -5345 -5295 0
5346 5345 -5295 0
-5346 5345 5295 0
5346 -5345 5295 0
-2365 -5199 5347 0
-2365 -5345 5347 0
-5199 -5345 5347 0
2365 5199 -5347 0
2365 5345 -5347 0
5199 5345 -5347 0
-2366 -5200 -5348 0
2366 5200 -5348 0
-2366 5200 5348 0
2366 -5200 5348 0
-5348 -5347 -5296 0
5348 5347 -5296 0
-5348 5347 5296 0
5348 -5347 5296 0
-2366 -5200 5349 0
-2366 -5347 5349 0
-5200 -5347 5349 0
2366 5200 -5349 0
2366 5347 -5349 0
5200 5347 -5349 0
-2367 -5201 -5350 0
2367 5201 -5350 0
-2367 5201 5350 0
2367 -5201 5350 0
-5350 -5349 -5297 0
5350 5349 -5297 0
-5350 5349 5297 0
5350 -5349 5297 0
-2367 -5201 5351 0
-2367 -5349 5351 0
-5201 -5349 5351 0
2367 5201 -5351 0
2367 5349 -5351 0
5201 5349 -5351 0
-2368 -5202 -5352 0
2368 5202 -5352 0
-2368 5202 5352 0
2368 -5202 5352 0
-5352 -5351 -5298 0
5352 5351 -5298 0
-5352 5351 5298 0
5352 -5351 5298 0
-2368 -5202 5353 0
-2368 -5351 5353 0
-5202 -5351 5353 0
2368 5202 -5353 0
2368 5351 -5353 0
5202 5351 -5353 0
-2369 -5203 -5354 0
2369 5203 -5354 0
-2369 5203 5354 0
2369 -5203 5354 0
-5354 -5353 -5299 0
5354 5353 -5299 0
-5354 5353 5299 0
5354 -5353 5299 0
-2369 -5203 5355 0
-2369 -5353 5355 0
-5203 -5353 5355 0
2369 5203 -5355 0
2369 5353 -5355 0
5203 5353 -5355 0
-2370 -5204 -5356 0
2370 5204 -5356 0
-2370 5204 5356 0
2370 -5204 5356 0
-5356 -5355 -5300 0
5356 5355 -5300 0
-5356 5355 5300 0
5356 -5355 5300 0
-2370 -5204 5357 0
-2370 -5355 5357 0
-5204 -5355 5357 0
2370 5204 -5357 0
2370 5355 -5357 0
5204 5355 -5357 0
-2371 -5205 -5358 0
2371 5205 -5358 0
-2371 5205 5358 0
2371 -5205 5358 0
-5358 -5357 -5301 0
5358 5357 -5301 0
-5358 5357 5301 0
5358 -5357 5301 0
-2371 -5205 5359 0
-2371 -5357 5359 0
-5205 -5357 5359 0
2371 5205 -5359 0
2371 5357 -5359 0
5205 5357 -5359 0
-2372 -5206 -5360 0
2372 5206 -5360 0
-2372 5206 5360 0
2372 -5206 5360 0
-5360 -5359 -5302 0
5360 5359 -5302 0
-5360 5359 5302 0
5360 -5359 5302 0
-2372 -5206 5361 0
-2372 -5359 5361 0
-5206 -5359 5361 0
2372 5206 -5361 0
2372 5359 -5361 0
5206 5359 -5361 0
-2373 -5207 -5362 0
2373 5207 -5362 0
-2373 5207 5362 0
2373 -5207 5362 0
-5362 -5361 -5303 0
5362 5361 -5303 0
-5362 5361 5303 0
5362 -5361 5303 0
-2373 -5207 5363 0
-2373 -5361 5363 0
-5207 -5361 5363 0
2373 5207 -5363 0
2373 5361 -5363 0
5207 5361 -5363 0
-2374 -5208 -5364 0
2374 5208 -5364 0
-2374 5208 5364 0
2374 -5208 5364 0
-5364 -5363 -5304 0
5364 5363 -5304 0
-5364 5363 5304 0
5364 -5363 5304 0
-2374 -5208 5365 0
-2374 -5363 5365 0
-5208 -5363 5365 0
2374 5208 -5365 0
2374 5363 -5365 0
5208 5363 -5365 0
-2375 -5209 -5366 0
2375 5209 -5366 0
-2375 5209 5366 0
2375 -5209 5366 0
-5366 -5365 -5305 0
5366 5365 -5305 0
-5366 5365 5305 0
5366 -5365 5305 0
-2375 -5209 5367 0
-2375 -5365 5367 0
-5209 -5365 5367 0
2375 5209 -5367 0
2375 5365 -5367 0
5209 5365 -5367 0
-2376 -5210 -5368 0
2376 5210 -5368 0
-2376 5210 5368 0
2376 -5210 5368 0
-5368 -5367 -5306 0
5368 5367 -5306 0
-5368 5367 5306 0
5368 -5367 5306 0
-5243 -161 -5369 0
5243 161 -5369 0
-5243 161 5369 0
5243 -161 5369 0
-5243 -161 5401 0
5243 -5401 0
161 -5401 0
-5244 -162 -5402 0
5244 162 -5402 0
-5244 162 5402 0
5244 -162 5402 0
-5402 -5401 -5370 0
5402 5401 -5370 0
-5402 5401 5370 0
5402 -5401 5370 0
-5244 -162 5403 0
-5244 -5401 5403 0
-162 -5401 5403 0
5244 162 -5403 0
5244 5401 -5403 0
162 5401 -5403 0
-5245 -163 -5404 0
5245 163 -5404 0
-5245 163 5404 0
5245 -163 5404 0
-5404 -5403 -5371 0
5404 5403 -5371 0
-5404 5403 5371 0
5404 -5403 5371 0
-5245 -163 5405 0
-5245 -5403 5405 0
-163 -5403 5405 0
5245 163 -5405 0
5245 5403 -5405 0
163 5403 -5405 0
-5246 -164 -5406 0
5246 164 -5406 0
-5246 164 5406 0
5246 -164 5406 0
-5406 -5405 -5372 0
5406 5405 -5372 0
-5406 5405 5372 0
5406 -5405 5372 0
-5246 -164 5407 0
-5246 -5405 5407 0
-164 -5405 5407 0
5246 164 -5407 0
5246 5405 -5407 0
164 5405 -5407 0
-5247 -165 -5408 0
5247 165 -5408 0
-5247 165 5408 0
5247 -165 5408 0
-5408 -5407 -5373 0
5408 5407 -5373 0
-5408 5407 5373 0
5408 -5407 5373 0
-5247 -165 5409 0
-5247 -5407 5409 0
-165 -5407 5409 0
5247 165 -5409 0
5247 5407 -5409 0
165 5407 -5409 0
-5248 -166 -5410 0
5248 166 -5410 0
-5248 166 5410 0
5248 -166 5410 0
-5410 -5409 -5374 0
5410 5409 -5374 0
-5410 5409 5374 0
5410 -5409 5374 0
-5248 -166 5411 0
-5248 -5409 5411 0
-166 -5409 5411 0
5248 166 -5411 0
5248 5409 -5411 0
166 5409 -5411 0
-5249 -167 -5412 0
5249 167 -5412 0
-5249 167 5412 0
5249 -167 5412 0
-5412 -5411 -5375 0
5412 5411 -5375 0
-5412 5411 5375 0
5412 -5411 5375 0
-5249 -167 5413 0
-5249 -5411 5413 0
-167 -5411 5413 0
5249 167 -5413 0
5249 5411 -5413 0
167 5411 -5413 0
-5250 -168 -5414 0
5250 168 -5414 0
-5250 168 5414 0
5250 -168 5414 0
-5414 -5413 -5376 0
5414 5413 -5376 0
-5414 5413 5376 0
5414 -5413 5376 0
-5250 -168 5415 0
-5250 -5413 5415 0
-168 -5413 5415 0
5250 168 -5415 0
5250 5413 -5415 0
168 5413 -5415 0
-5251 -169 -5416 0
5251 169 -5416 0
-5251 169 5416 0
5251 -169 5416 0
-5416 -5415 -5377 0
5416 5415 -5377 0
-5416 5415 5377 0
5416 -5415 5377 0
-5251 -169 5417 0
-5251 -5415 5417 0
-169 -5415 5417 0
5251 169 -5417 0
5251 5415 -5417 0
169 5415 -5417 0
-5252 -170 -5418 0
5252 170 -5418 0
-5252 170 5418 0
5252 -170 5418 0
-5418 -5417 -5378 0
5418 5417 -5378 0
-5418 5417 5378 0
5418 -5417 5378 0
-5252 -170 5419 0
-5252 -5417 5419 0
-170 -5417 5419 0
5252 170 -5419 0
5252 5417 -5419 0
170 5417 -5419 0
-5253 -171 -5420 0
5253 171 -5420 0
-5253 171 5420 0
5253 -171 5420 0
-5420 -5419 -5379 0
5420 5419 -5379 0
-5420 5419 5379 0
5420 -5419 5379 0
-5253 -171 5421 0
-5253 -5419 5421 0
-171 -5419 5421 0
5253 171 -5421 0
5253 5419 -5421 0
171 5419 -5421 0
-5254 -172 -5422 0
5254 172 -5422 0
-5254 172 5422 0
5254 -172 5422 0
-5422 -5421 -5380 0
5422 5421 -5380 0
-5422 5421 5380 0
5422 -5421 5380 0
-5254 -172 5423 0
-5254 -5421 5423 0
-172 -5421 5423 0
5254 172 -5423 0
5254 5421 -5423 0
172 5421 -5423 0
-5255 -173 -5424 0
5255 173 -5424 0
-5255 173 5424 0
5255 -173 5424 0
-5424 -5423 -5381 0
5424 5423 -5381 0
-5424 5423 5381 0
5424 -5423 5381 0
-5255 -173 5425 0
-5255 -5423 5425 0
-173 -5423 5425 0
5255 173 -5425 0
5255 5423 -5425 0
173 5423 -5425 0
-5256 -174 -5426 0
5256 174 -5426 0
-5256 174 5426 0
5256 -174 5426 0
-5426 -5425 -5382 0
5426 5425 -5382 0
-5426 5425 5382 0
5426 -5425 5382 0
-5256 -174 5427 0
-5256 -5425 5427 0
-174 -5425 5427 0
5256 174 -5427 0
5256 5425 -5427 0
174 5425 -5427 0
-5257 -175 -5428 0
5257 175 -5428 0
-5257 175 5428 0
5257 -175 5428 0
-5428 -5427 -5383 0
5428 5427 -5383 0
-5428 5427 5383 0
5428 -5427 5383 0
-5257 -175 5429 0
-5257 -5427 5429 0
-175 -5427 5429 0
5257 175 -5429 0
5257 5427 -5429 0
175 5427 -5429 0
-5258 -176 -5430 0
5258 176 -5430 0
-5258 176 5430 0
5258 -176 5430 0
-5430 -5429 -5384 0
5430 5429 -5384 0
-5430 5429 5384 0
5430 -5429 5384 0
-5258 -176 5431 0
-5258 -5429 5431 0
-176 -5429 5431 0
5258 176 -5431 0
5258 5429 -5431 0
176 5429 -5431 0
-5259 -177 -5432 0
5259 177 -5432 0
-5259 177 5432 0
5259 -177 5432 0
-5432 -5431 -5385 0
5432 5431 -5385 0
-5432 5431 5385 0
5432 -5431 5385 0
-5259 -177 5433 0
-5259 -5431 5433 0
-177 -5431 5433 0
5259 177 -5433 0
5259 5431 -5433 0
177 5431 -5433 0
-5260 -178 -5434 0
5260 178 -5434 0
-5260 178 5434 0
5260 -178 5434 0
-5434 -5433 -5386 0
5434 5433 -5386 0
-5434 5433 5386 0
5434 -5433 5386 0
-5260 -178 5435 0
-5260 -5433 5435 0
-178 -5433 5435 0
5260 178 -5435 0
5260 5433 -5435 0
178 5433 -5435 0
-5261 -179 -5436 0
5261 179 -5436 0
-5261 179 5436 0
5261 -179 5436 0
-5436 -5435 -5387 0
5436 5435 -5387 0
-5436 5435 5387 0
5436 -5435 5387 0
-5261 -179 5437 0
-5261 -5435 5437 0
-179 -5435 5437 0
5261 179 -5437 0
5261 5435 -5437 0
179 5435 -5437 0
-5262 -180 -5438 0
5262 180 -5438 0
-5262 180 5438 0
5262 -180 5438 0
-5438 -5437 -5388 0
5438 5437 -5388 0
-5438 5437 5388 0
5438 -5437 5388 0
-5262 -180 5439 0
-5262 -5437 5439 0
-180 -5437 5439 0
5262 180 -5439 0
5262 5437 -5439 0
180 5437 -5439 0
-5263 -181 -5440 0
5263 181 -5440 0
-5263 181 5440 0
5263 -181 5440 0
-5440 -5439 -5389 0
5440 5439 -5389 0
-5440 5439 5389 0
5440 -5439 5389 0
-5263 -181 5441 0
-5263 -5439 5441 0
-181 -5439 5441 0
5263 181 -5441 0
5263 5439 -5441 0
181 5439 -5441 0
-5264 -182 -5442 0
5264 182 -5442 0
-5264 182 5442 0
5264 -182 5442 0
-5442 -5441 -5390 0
5442 5441 -5390 0
-5442 5441 5390 0
5442 -5441 5390 0
-5264 -182 5443 0
-5264 -5441 5443 0
-182 -5441 5443 0
5264 182 -5443 0
5264 5441 -5443 0
182 5441 -5443 0
-5265 -183 -5444 0
5265 183 -5444 0
-5265 183 5444 0
5265 -183 5444 0
-5444 -5443 -5391 0
5444 5443 -5391 0
-5444 5443 5391 0
5444 -5443 5391 0
-5265 -183 5445 0
-5265 -5443 5445 0
-183 -5443 5445 0
5265 183 -5445 0
5265 5443 -5445 0
183 5443 -5445 0
-5266 -184 -5446 0
5266 184 -5446 0
-5266 184 5446 0
5266 -184 5446 0
-5446 -5445 -5392 0
5446 5445 -5392 0
-5446 5445 5392 0
5446 -5445 5392 0
-5266 -184 5447 0
-5266 -5445 5447 0
-184 -5445 5447 0
5266 184 -5447 0
5266 5445 -5447 0
184 5445 -5447 0
-5267 -185 -5448 0
5267 185 -5448 0
-5267 185 5448 0
5267 -185 5448 0
-5448 -5447 -5393 0
5448 5447 -5393 0
-5448 5447 5393 0
5448 -5447 5393 0
-5267 -185 5449 0
-5267 -5447 5449 0
-185 -5447 5449 0
5267 185 -5449 0
5267 5447 -5449 0
185 5447 -5449 0
-5268 -186 -5450 0
5268 186 -5450 0
-5268 186 5450 0
5268 -186 5450 0
-5450 -5449 -5394 0
5450 5449 -5394 0
-5450 5449 5394 0
5450 -5449 5394 0
-5268 -186 5451 0
-5268 -5449 5451 0
-186 -5449 5451 0
5268 186 -5451 0
5268 5449 -5451 0
186 5449 -5451 0
-5269 -187 -5452 0
5269 187 -5452 0
-5269 187 5452 0
5269 -187 5452 0
-5452 -5451 -5395 0
5452 5451 -5395 0
-5452 5451 5395 0
5452 -5451 5395 0
-5269 -187 5453 0
-5269 -5451 5453 0
-187 -5451 5453 0
5269 187 -5453 0
5269 5451 -5453 0
187 5451 -5453 0
-5270 -188 -5454 0
5270 188 -5454 0
-5270 188 5454 0
5270 -188 5454 0
-5454 -5453 -5396 0
5454 5453 -5396 0
-5454 5453 5396 0
5454 -5453 5396 0
-5270 -188 5455 0
-5270 -5453 5455 0
-188 -5453 5455 0
5270 188 -5455 0
5270 5453 -5455 0
188 5453 -5455 0
-5271 -189 -5456 0
5271 189 -5456 0
-5271 189 5456 0
5271 -189 5456 0
-5456 -5455 -5397 0
5456 5455 -5397 0
-5456 5455 5397 0
5456 -5455 5397 0
-5271 -189 5457 0
-5271 -5455 5457 0
-189 -5455 5457 0
5271 189 -5457 0
5271 5455 -5457 0
189 5455 -5457 0
-5272 -190 -5458 0
5272 190 -5458 0
-5272 190 5458 0
5272 -190 5458 0
-5458 -5457 -5398 0
5458 5457 -5398 0
-5458 5457 5398 0
5458 -5457 5398 0
-5272 -190 5459 0
-5272 -5457 5459 0
-190 -5457 5459 0
5272 190 -5459 0
5272 5457 -5459 0
190 5457 -5459 0
-5273 -191 -5460 0
5273 191 -5460 0
-5273 191 5460 0
5273 -191 5460 0
-5460 -5459 -5399 0
5460 5459 -5399 0
-5460 5459 5399 0
5460 -5459 5399 0
-5273 -191 5461 0
-5273 -5459 5461 0
-191 -5459 5461 0
5273 191 -5461 0
5273 5459 -5461 0
191 5459 -5461 0
-5274 -192 -5462 0
5274 192 -5462 0
-5274 192 5462 0
5274 -192 5462 0
-5462 -5461 -5400 0
5462 5461 -5400 0
-5462 5461 5400 0
5462 -5461 5400 0
5463 0
-5464 0
-5465 0
-5466 0
5467 0
5468 0
5469 0
5470 0
5471 0
-5472 0
-5473 0
-5474 0
5475 0
-5476 0
-5477 0
-5478 0
5479 0
-5480 0
-5481 0
-5482 0
5483 0
5484 0
5485 0
5486 0
5487 0
-5488 0
-5489 0
5490 0
5491 0
-5492 0
5493 0
-5494 0
-5275 -5463 -5495 0
5275 5463 -5495 0
-5275 5463 5495 0
5275 -5463 5495 0
-5275 -5463 5527 0
5275 -5527 0
5463 -5527 0
-5276 -5464 -5528 0
5276 5464 -5528 0
-5276 5464 5528 0
5276 -5464 5528 0
-5528 -5527 -5496 0
5528 5527 -5496 0
-5528 5527 5496 0
5528 -5527 5496 0
-5276 -5464 5529 0
-5276 -5527 5529 0
-5464 -5527 5529 0
5276 5464 -5529 0
5276 5527 -5529 0
5464 5527 -5529 0
-5277 -5465 -5530 0
5277 5465 -5530 0
-5277 5465 5530 0
5277 -5465 5530 0
-5530 -5529 -5497 0
5530 5529 -5497 0
-5530 5529 5497 0
5530 -5529 5497 0
-5277 -5465 5531 0
-5277 -5529 5531 0
-5465 -5529 5531 0
5277 5465 -5531 0
5277 5529 -5531 0
5465 5529 -5531 0
-5278 -5466 -5532 0
5278 5466 -5532 0
-5278 5466 5532 0
5278 -5466 5532 0
-5532 -5531 -5498 0
5532 5531 -5498 0
-5532 5531 5498 0
5532 -5531 5498 0
-5278 -5466 5533 0
-5278 -5531 5533 0
-5466 -5531 5533 0
5278 5466 -5533 0
5278 5531 -5533 0
5466 5531 -5533 0
-5279 -5467 -5534 0
5279 5467 -5534 0
-5279 5467 5534 0
5279 -5467 5534 0
-5534 -5533 -5499 0
5534 5533 -5499 0
-5534 5533 5499 0
5534 -5533 5499 0
-5279 -5467 5535 0
-5279 -5533 5535 0
-5467 -5533 5535 0
5279 5467 -5535 0
5279 5533 -5535 0
5467 5533 -5535 0
-5280 -5468 -5536 0
5280 5468 -5536 0
-5280 5468 5536 0
5280 -5468 5536 0
-5536 -5535 -5500 0
5536 5535 -5500 0
-5536 5535 5500 0
5536 -5535 5500 0
-5280 -5468 5537 0
-5280 -5535 5537 0
-5468 -5535 5537 0
5280 5468 -5537 0
5280 5535 -5537 0
5468 5535 -5537 0
-5281 -5469 -5538 0
5281 5469 -5538 0
-5281 5469 5538 0
5281 -5469 5538 0
-5538 -5537 -5501 0
5538 5537 -5501 0
-5538 5537 5501 0
5538 -5537 5501 0
-5281 -5469 5539 0
-5281 -5537 5539 0
-5469 -5537 5539 0
5281 5469 -5539 0
5281 5537 -5539 0
5469 5537 -5539 0
-5282 -5470 -5540 0
5282 5470 -5540 0
-5282 5470 5540 0
5282 -5470 5540 0
-5540 -5539 -5502 0
5540 5539 -5502 0
-5540 5539 5502 0
5540 -5539 5502 0
-5282 -5470 5541 0
-5282 -5539 5541 0
-5470 -5539 5541 0
5282 5470 -5541 0
5282 5539 -5541 0
5470 5539 -5541 0
-5283 -5471 -5542 0
5283 5471 -5542 0
-5283 5471 5542 0
5283 -5471 5542 0
-5542 -5541 -5503 0
5542 5541 -5503 0
-5542 5541 5503 0
5542 -5541 5503 0
-5283 -5471 5543 0
-5283 -5541 5543 0
-5471 -5541 5543 0
5283 5471 -5543 0
5283 5541 -5543 0
5471 5541 -5543 0
-5284 -5472 -5544 0
5284 5472 -5544 0
-5284 5472 5544 0
5284 -5472 5544 0
-5544 -5543 -5504 0
5544 5543 -5504 0
-5544 5543 5504 0
5544 -5543 5504 0
-5284 -5472 5545 0
-5284 -5543 5545 0
-5472 -5543 5545 0
5284 5472 -5545 0
5284 5543 -5545 0
5472 5543 -5545 0
-5285 -5473 -5546 0
5285 5473 -5546 0
-5285 5473 5546 0
5285 -5473 5546 0
-5546 -5545 -5505 0
5546 5545 -5505 0
-5546 5545 5505 0
5546 -5545 5505 0
-5285 -5473 5547 0
-5285 -5545 5547 0
-5473 -5545 5547 0
5285 5473 -5547 0
5285 5545 -5547 0
5473 5545 -5547 0
-5286 -5474 -5548 0
5286 5474 -5548 0
-5286 5474 5548 0
5286 -5474 5548 0
-5548 -5547 -5506 0
5548 5547 -5506 0
-5548 5547 5506 0
5548 -5547 5506 0
-5286 -5474 5549 0
-5286 -5547 5549 0
-5474 -5547 5549 0
5286 5474 -5549 0
5286 5547 -5549 0
5474 5547 -5549 0
-5287 -5475 -5550 0
5287 5475 -5550 0
-5287 5475 5550 0
5287 -5475 5550 0
-5550 -5549 -5507 0
5550 5549 -5507 0
-5550 5549 5507 0
5550 -5549 5507 0
-5287 -5475 5551 0
-5287 -5549 5551 0
-5475 -5549 5551 0
5287 5475 -5551 0
5287 5549 -5551 0
5475 5549 -5551 0
-5288 -5476 -5552 0
5288 5476 -5552 0
-5288 5476 5552 0
5288 -5476 5552 0
-5552 -5551 -5508 0
5552 5551 -5508 0
-5552 5551 5508 0
5552 -5551 5508 0
-5288 -5476 5553 0
-5288 -5551 5553 0
-5476 -5551 5553 0
5288 5476 -5553 0
5288 5551 -5553 0
5476 5551 -5553 0
-5289 -5477 -5554 0
5289 5477 -5554 0
-5289 5477 5554 0
5289 -5477 5554 0
-5554 -5553 -5509 0
5554 5553 -5509 0
-5554 5553 5509 0
5554 -5553 5509 0
-5289 -5477 5555 0
-5289 -5553 5555 0
-5477 -5553 5555 0
5289 5477 -5555 0
5289 5553 -5555 0
5477 5553 -5555 0
-5290 -5478 -5556 0
5290 5478 -5556 0
-5290 5478 5556 0
5290 -5478 5556 0
-5556 -5555 -5510 0
5556 5555 -5510 0
-5556 5555 5510 0
5556 -5555 5510 0
-5290 -5478 5557 0
-5290 -5555 5557 0
-5478 -5555 5557 0
5290 5478 -5557 0
5290 5555 -5557 0
5478 5555 -5557 0
-5291 -5479 -5558 0
5291 5479 -5558 0
-5291 5479 5558 0
5291 -5479 5558 0
-5558 -5557 -5511 0
5558 5557 -5511 0
-5558 5557 5511 0
5558 -5557 5511 0
-5291 -5479 5559 0
-5291 -5557 5559 0
-5479 -5557 5559 0
5291 5479 -5559 0
5291 5557 -5559 0
5479 5557 -5559 0
-5292 -5480 -5560 0
5292 5480 -5560 0
-5292 5480 5560 0
5292 -5480 5560 0
-5560 -5559 -5512 0
5560 5559 -5512 0
-5560 5559 5512 0
5560 -5559 5512 0
-5292 -5480 5561 0
-5292 -5559 5561 0
-5480 -5559 5561 0
5292 5480 -5561 0
5292 5559 -5561 0
5480 5559 -5561 0
-5293 -5481 -5562 0
5293 5481 -5562 0
-5293 5481 5562 0
5293 -5481 5562 0
-5562 -5561 -5513 0
5562 5561 -5513 0
-5562 5561 5513 0
5562 -5561 5513 0
-5293 -5481 5563 0
-5293 -5561 5563 0
-5481 -5561 5563 0
5293 5481 -5563 0
5293 5561 -5563 0
5481 5561 -5563 0
-5294 -5482 -5564 0
5294 5482 -5564 0
-5294 5482 5564 0
5294 -5482 5564 0
-5564 -5563 -5514 0
5564 5563 -5514 0
-5564 5563 5514 0
5564 -5563 5514 0
-5294 -5482 5565 0
-5294 -5563 5565 0
-5482 -5563 5565 0
5294 5482 -5565 0
5294 5563 -5565 0
5482 5563 -5565 0
-5295 -5483 -5566 0
5295 5483 -5566 0
-5295 5483 5566 0
5295 -5483 5566 0
-5566 -5565 -5515 0
5566 5565 -5515 0
-5566 5565 5515 0
5566 -5565 5515 0
-5295 -5483 5567 0
-5295 -5565 5567 0
-5483 -5565 5567 0
5295 5483 -5567 0
5295 5565 -5567 0
5483 5565 -5567 0
-5296 -5484 -5568 0
5296 5484 -5568 0
-5296 5484 5568 0
5296 -5484 5568 0
-5568 -5567 -5516 0
5568 5567 -5516 0
-5568 5567 5516 0
5568 -5567 5516 0
-5296 -5484 5569 0
-5296 -5567 5569 0
-5484 -5567 5569 0
5296 5484 -5569 0
5296 5567 -5569 0
5484 5567 -5569 0
-5297 -5485 -5570 0
5297 5485 -5570 0
-5297 5485 5570 0
5297 -5485 5570 0
-5570 -5569 -5517 0
5570 5569 -5517 0
-5570 5569 5517 0
5570 -5569 5517 0
-5297 -5485 5571 0
-5297 -5569 5571 0
-5485 -5569 5571 0
5297 5485 -5571 0
5297 5569 -5571 0
5485 5569 -5571 0
-5298 -5486 -5572 0
5298 5486 -5572 0
-5298 5486 5572 0
5298 -5486 5572 0
-5572 -5571 -5518 0
5572 5571 -5518 0
-5572 5571 5518 0
5572 -5571 5518 0
-5298 -5486 5573 0
-5298 -5571 5573 0
-5486 -5571 5573 0
5298 5486 -5573 0
5298 5571 -5573 0
5486 5571 -5573 0
-5299 -5487 -5574 0
5299 5487 -5574 0
-5299 5487 5574 0
5299 -5487 5574 0
-5574 -5573 -5519 0
5574 5573 -5519 0
-5574 5573 5519 0
5574 -5573 5519 0
-5299 -5487 5575 0
-5299 -5573 5575 0
-5487 -5573 5575 0
5299 5487 -5575 0
5299 5573 -5575 0
5487 5573 -5575 0
-5300 -5488 -5576 0
5300 5488 -5576 0
-5300 5488 5576 0
5300 -5488 5576 0
-5576 -5575 -5520 0
5576 5575 -5520 0
-5576 5575 5520 0
5576 -5575 5520 0
-5300 -5488 5577 0
-5300 -5575 5577 0
-5488 -5575 5577 0
5300 5488 -5577 0
5300 5575 -5577 0
5488 5575 -5577 0
-5301 -5489 -5578 0
5301 5489 -5578 0
-5301 5489 5578 0
5301 -5489 5578 0
-5578 -5577 -5521 0
5578 5577 -5521 0
-5578 5577 5521 0
5578 -5577 5521 0
-5301 -5489 5579 0
-5301 -5577 5579 0
-5489 -5577 5579 0
5301 5489 -5579 0
5301 5577 -5579 0
5489 5577 -5579 0
-5302 -5490 -5580 0
5302 5490 -5580 0
-5302 5490 5580 0
5302 -5490 5580 0
-5580 -5579 -5522 0
5580 5579 -5522 0
-5580 5579 5522 0
5580 -5579 5522 0
-5302 -5490 5581 0
-5302 -5579 5581 0
-5490 -5579 5581 0
5302 5490 -5581 0
5302 5579 -5581 0
5490 5579 -5581 0
-5303 -5491 -5582 0
5303 5491 -5582 0
-5303 5491 5582 0
5303 -5491 5582 0
-5582 -5581 -5523 0
5582 5581 -5523 0
-5582 5581 5523 0
5582 -5581 5523 0
-5303 -5491 5583 0
-5303 -5581 5583 0
-5491 -5581 5583 0
5303 5491 -5583 0
5303 5581 -5583 0
5491 5581 -5583 0
-5304 -5492 -5584 0
5304 5492 -5584 0
-5304 5492 5584 0
5304 -5492 5584 0
-5584 -5583 -5524 0
5584 5583 -5524 0
-5584 5583 5524 0
5584 -5583 5524 0
-5304 -5492 5585 0
-5304 -5583 5585 0
-5492 -5583 5585 0
5304 5492 -5585 0
5304 5583 -5585 0
5492 5583 -5585 0
-5305 -5493 -5586 0
5305 5493 -5586 0
-5305 5493 5586 0
5305 -5493 5586 0
-5586 -5585 -5525 0
5586 5585 -5525 0
-5586 5585 5525 0
5586 -5585 5525 0
-5305 -5493 5587 0
-5305 -5585 5587 0
-5493 -5585 5587 0
5305 5493 -5587 0
5305 5585 -5587 0
5493 5585 -5587 0
-5306 -5494 -5588 0
5306 5494 -5588 0
-5306 5494 5588 0
5306 -5494 5588 0
-5588 -5587 -5526 0
5588 5587 -5526 0
-5588 5587 5526 0
5588 -5587 5526 0
-5369 -5495 -5589 0
5369 5495 -5589 0
-5369 5495 5589 0
5369 -5495 5589 0
-5369 -5495 5621 0
5369 -5621 0
5495 -5621 0
-5370 -5496 -5622 0
5370 5496 -5622 0
-5370 5496 5622 0
5370 -5496 5622 0
-5622 -5621 -5590 0
5622 5621 -5590 0
-5622 5621 5590 0
5622 -5621 5590 0
-5370 -5496 5623 0
-5370 -5621 5623 0
-5496 -5621 5623 0
5370 5496 -5623 0
5370 5621 -5623 0
5496 5621 -5623 0
-5371 -5497 -5624 0
5371 5497 -5624 0
-5371 5497 5624 0
5371 -5497 5624 0
-5624 -5623 -5591 0
5624 5623 -5591 0
-5624 5623 5591 0
5624 -5623 5591 0
-5371 -5497 5625 0
-5371 -5623 5625 0
-5497 -5623 5625 0
5371 5497 -5625 0
5371 5623 -5625 0
5497 5623 -5625 0
-5372 -5498 -5626 0
5372 5498 -5626 0
-5372 5498 5626 0
5372 -5498 5626 0
-5626 -5625 -5592 0
5626 5625 -5592 0
-5626 5625 5592 0
5626 -5625 5592 0
-5372 -5498 5627 0
-5372 -5625 5627 0
-5498 -5625 5627 0
5372 5498 -5627 0
5372 5625 -5627 0
5498 5625 -5627 0
-5373 -5499 -5628 0
5373 5499 -5628 0
-5373 5499 5628 0
5373 -5499 5628 0
-5628 -5627 -5593 0
5628 5627 -5593 0
-5628 5627 5593 0
5628 -5627 5593 0
-5373 -5499 5629 0
-5373 -5627 5629 0
-5499 -5627 5629 0
5373 5499 -5629 0
5373 5627 -5629 0
5499 5627 -5629 0
-5374 -5500 -5630 0
5374 5500 -5630 0
-5374 5500 5630 0
5374 -5500 5630 0
-5630 -5629 -5594 0
5630 5629 -5594 0
-5630 5629 5594 0
5630 -5629 5594 0
-5374 -5500 5631 0
-5374 -5629 5631 0
-5500 -5629 5631 0
5374 5500 -5631 0
5374 5629 -5631 0
5500 5629 -5631 0
-5375 -5501 -5632 0
5375 5501 -5632 0
-5375 5501 5632 0
5375 -5501 5632 0
-5632 -5631 -5595 0
5632 5631 -5595 0
-5632 5631 5595 0
5632 -5631 5595 0
-5375 -5501 5633 0
-5375 -5631 5633 0
-5501 -5631 5633 0
5375 5501 -5633 0
5375 5631 -5633 0
5501 5631 -5633 0
-5376 -5502 -5634 0
5376 5502 -5634 0
-5376 5502 5634 0
5376 -5502 5634 0
-5634 -5633 -5596 0
5634 5633 -5596 0
-5634 5633 5596 0
5634 -5633 5596 0
-5376 -5502 5635 0
-5376 -5633 5635 0
-5502 -5633 5635 0
5376 5502 -5635 0
5376 5633 -5635 0
5502 5633 -5635 0
-5377 -5503 -5636 0
5377 5503 -5636 0
-5377 5503 5636 0
5377 -5503 5636 0
-5636 -5635 -5597 0
5636 5635 -5597 0
-5636 5635 5597 0
5636 -5635 5597 0
-5377 -5503 5637 0
-5377 -5635 5637 0
-5503 -5635 5637 0
5377 5503 -5637 0
5377 5635 -5637 0
5503 5635 -5637 0
-5378 -5504 -5638 0
5378 5504 -5638 0
-5378 5504 5638 0
5378 -5504 5638 0
-5638 -5637 -5598 0
5638 5637 -5598 0
-5638 5637 5598 0
5638 -5637 5598 0
-5378 -5504 5639 0
-5378 -5637 5639 0
-5504 -5637 5639 0
5378 5504 -5639 0
5378 5637 -5639 0
5504 5637 -5639 0
-5379 -5505 -5640 0
5379 5505 -5640 0
-5379 5505 5640 0
5379 -5505 5640 0
-5640 -5639 -5599 0
5640 5639 -5599 0
-5640 5639 5599 0
5640 -5639 5599 0
-5379 -5505 5641 0
-5379 -5639 5641 0
-5505 -5639 5641 0
5379 5505 -5641 0
5379 5639 -5641 0
5505 5639 -5641 0
-5380 -5506 -5642 0
5380 5506 -5642 0
-5380 5506 5642 0
5380 -5506 5642 0
-5642 -5641 -5600 0
5642 5641 -5600 0
-5642 5641 5600 0
5642 -5641 5600 0
-5380 -5506 5643 0
-5380 -5641 5643 0
-5506 -5641 5643 0
5380 5506 -5643 0
5380 5641 -5643 0
5506 5641 -5643 0
-5381 -5507 -5644 0
5381 5507 -5644 0
-5381 5507 5644 0
5381 -5507 5644 0
-5644 -5643 -5601 0
5644 5643 -5601 0
-5644 5643 5601 0
5644 -5643 5601 0
-5381 -5507 5645 0
-5381 -5643 5645 0
-5507 -5643 5645 0
5381 5507 -5645 0
5381 5643 -5645 0
5507 5643 -5645 0
-5382 -5508 -5646 0
5382 5508 -5646 0
-5382 5508 5646 0
5382 -5508 5646 0
-5646 -5645 -5602 0
5646 5645 -5602 0
-5646 5645 5602 0
5646 -5645 5602 0
-5382 -5508 5647 0
-5382 -5645 5647 0
-5508 -5645 5647 0
5382 5508 -5647 0
5382 5645 -5647 0
5508 5645 -5647 0
-5383 -5509 -5648 0
5383 5509 -5648 0
-5383 5509 5648 0
5383 -5509 5648 0
-5648 -5647 -5603 0
5648 5647 -5603 0
-5648 5647 5603 0
5648 -5647 5603 0
-5383 -5509 5649 0
-5383 -5647 5649 0
-5509 -5647 5649 0
5383 5509 -5649 0
5383 5647 -5649 0
5509 5647 -5649 0
-5384 -5510 -5650 0
5384 5510 -5650 0
-5384 5510 5650 0
5384 -5510 5650 0
-5650 -5649 -5604 0
5650 5649 -5604 0
-5650 5649 5604 0
5650 -5649 5604 0
-5384 -5510 5651 0
-5384 -5649 5651 0
-5510 -5649 5651 0
5384 5510 -5651 0
5384 5649 -5651 0
5510 5649 -5651 0
-5385 -5511 -5652 0
5385 5511 -5652 0
-5385 5511 5652 0
5385 -5511 5652 0
-5652 -5651 -5605 0
5652 5651 -5605 0
-5652 5651 5605 0
5652 -5651 5605 0
-5385 -5511 5653 0
-5385 -5651 5653 0
-5511 -5651 5653 0
5385 5511 -5653 0
5385 5651 -5653 0
5511 5651 -5653 0
-5386 -5512 -5654 0
5386 5512 -5654 0
-5386 5512 5654 0
5386 -5512 5654 0
-5654 -5653 -5606 0
5654 5653 -5606 0
-5654 5653 5606 0
5654 -5653 5606 0
-5386 -5512 5655 0
-5386 -5653 5655 0
-5512 -5653 5655 0
5386 5512 -5655 0
5386 5653 -5655 0
5512 5653 -5655 0
-5387 -5513 -5656 0
5387 5513 -5656 0
-5387 5513 5656 0
5387 -5513 5656 0
-5656 -5655 -5607 0
5656 5655 -5607 0
-5656 5655 5607 0
5656 -5655 5607 0
-5387 -5513 5657 0
-5387 -5655 5657 0
-5513 -5655 5657 0
5387 5513 -5657 0
5387 5655 -5657 0
5513 5655 -5657 0
-5388 -5514 -5658 0
5388 5514 -5658 0
-5388 5514 5658 0
5388 -5514 5658 0
-5658 -5657 -5608 0
5658 5657 -5608 0
-5658 5657 5608 0
5658 -5657 5608 0
-5388 -5514 5659 0
-5388 -5657 5659 0
-5514 -5657 5659 0
5388 5514 -5659 0
5388 5657 -5659 0
5514 5657 -5659 0
-5389 -5515 -5660 0
5389 5515 -5660 0
-5389 5515 5660 0
5389 -5515 5660 0
-5660 -5659 -5609 0
5660 5659 -5609 0
-5660 5659 5609 0
5660 -5659 5609 0
-5389 -5515 5661 0
-5389 -5659 5661 0
-5515 -5659 5661 0
5389 5515 -5661 0
5389 5659 -5661 0
5515 5659 -5661 0
-5390 -5516 -5662 0
5390 5516 -5662 0
-5390 5516 5662 0
5390 -5516 5662 0
-5662 -5661 -5610 0
5662 5661 -5610 0
-5662 5661 5610 0
5662 -5661 5610 0
-5390 -5516 5663 0
-5390 -5661 5663 0
-5516 -5661 5663 0
5390 5516 -5663 0
5390 5661 -5663 0
5516 5661 -5663 0
-5391 -5517 -5664 0
5391 5517 -5664 0
-5391 5517 5664 0
5391 -5517 5664 0
-5664 -5663 -5611 0
5664 5663 -5611 0
-5664 5663 5611 0
5664 -5663 5611 0
-5391 -5517 5665 0
-5391 -5663 5665 0
-5517 -5663 5665 0
5391 5517 -5665 0
5391 5663 -5665 0
5517 5663 -5665 0
-5392 -5518 -5666 0
5392 5518 -5666 0
-5392 5518 5666 0
5392 -5518 5666 0
-5666 -5665 -5612 0
5666 5665 -5612 0
-5666 5665 5612 0
5666 -5665 5612 0
-5392 -5518 5667 0
-5392 -5665 5667 0
-5518 -5665 5667 0
5392 5518 -5667 0
5392 5665 -5667 0
5518 5665 -5667 0
-5393 -5519 -5668 0
5393 5519 -5668 0
-5393 5519 5668 0
5393 -5519 5668 0
-5668 -5667 -5613 0
5668 5667 -5613 0
-5668 5667 5613 0
5668 -5667 5613 0
-5393 -5519 5669 0
-5393 -5667 5669 0
-5519 -5667 5669 0
5393 5519 -5669 0
5393 5667 -5669 0
5519 5667 -5669 0
-5394 -5520 -5670 0
5394 5520 -5670 0
-5394 5520 5670 0
5394 -5520 5670 0
-5670 -5669 -5614 0
5670 5669 -5614 0
-5670 5669 5614 0
5670 -5669 5614 0
-5394 -5520 5671 0
-5394 -5669 5671 0
-5520 -5669 5671 0
5394 5520 -5671 0
5394 5669 -5671 0
5520 5669 -5671 0
-5395 -5521 -5672 0
5395 5521 -5672 0
-5395 5521 5672 0
5395 -5521 5672 0
-5672 -5671 -5615 0
5672 5671 -5615 0
-5672 5671 5615 0
5672 -5671 5615 0
-5395 -5521 5673 0
-5395 -5671 5673 0
-5521 -5671 5673 0
5395 5521 -5673 0
5395 5671 -5673 0
5521 5671 -5673 0
-5396 -5522 -5674 0
5396 5522 -5674 0
-5396 5522 5674 0
5396 -5522 5674 0
-5674 -5673 -5616 0
5674 5673 -5616 0
-5674 5673 5616 0
5674 -5673 5616 0
-5396 -5522 5675 0
-5396 -5673 5675 0
-5522 -5673 5675 0
5396 5522 -5675 0
5396 5673 -5675 0
5522 5673 -5675 0
-5397 -5523 -5676 0
5397 5523 -5676 0
-5397 5523 5676 0
5397 -5523 5676 0
-5676 -5675 -5617 0
5676 5675 -5617 0
-5676 5675 5617 0
5676 -5675 5617 0
-5397 -5523 5677 0
-5397 -5675 5677 0
-5523 -5675 5677 0
5397 5523 -5677 0
5397 5675 -5677 0
5523 5675 -5677 0
-5398 -5524 -5678 0
5398 5524 -5678 0
-5398 5524 5678 0
5398 -5524 5678 0
-5678 -5677 -5618 0
5678 5677 -5618 0
-5678 5677 5618 0
5678 -5677 5618 0
-5398 -5524 5679 0
-5398 -5677 5679 0
-5524 -5677 5679 0
5398 5524 -5679 0
5398 5677 -5679 0
5524 5677 -5679 0
-5399 -5525 -5680 0
5399 5525 -5680 0
-5399 5525 5680 0
5399 -5525 5680 0
-5680 -5679 -5619 0
5680 5679 -5619 0
-5680 5679 5619 0
5680 -5679 5619 0
-5399 -5525 5681 0
-5399 -5679 5681 0
-5525 -5679 5681 0
5399 5525 -5681 0
5399 5679 -5681 0
5525 5679 -5681 0
-5400 -5526 -5682 0
5400 5526 -5682 0
-5400 5526 5682 0
5400 -5526 5682 0
-5682 -5681 -5620 0
5682 5681 -5620 0
-5682 5681 5620 0
5682 -5681 5620 0
-5087 -5098 -5715 0
5087 5098 -5715 0
-5087 5098 5715 0
5087 -5098 5715 0
-5715 -5107 -5683 0
5715 5107 -5683 0
-5715 5107 5683 0
5715 -5107 5683 0
-5088 -5099 -5716 0
5088 5099 -5716 0
-5088 5099 5716 0
5088 -5099 5716 0
-5716 -5108 -5684 0
5716 5108 -5684 0
-5716 5108 5684 0
5716 -5108 5684 0
-5089 -5100 -5717 0
5089 5100 -5717 0
-5089 5100 5717 0
5089 -5100 5717 0
-5717 -5109 -5685 0
5717 5109 -5685 0
-5717 5109 5685 0
5717 -5109 5685 0
-5090 -5101 -5718 0
5090 5101 -5718 0
-5090 5101 5718 0
5090 -5101 5718 0
-5718 -5110 -5686 0
5718 5110 -5686 0
-5718 5110 5686 0
5718 -5110 5686 0
-5091 -5102 -5719 0
5091 5102 -5719 0
-5091 5102 5719 0
5091 -5102 5719 0
-5719 -5111 -5687 0
5719 5111 -5687 0
-5719 5111 5687 0
5719 -5111 5687 0
-5092 -5103 -5720 0
5092 5103 -5720 0
-5092 5103 5720 0
5092 -5103 5720 0
-5720 -5112 -5688 0
5720 5112 -5688 0
-5720 5112 5688 0
5720 -5112 5688 0
-5093 -5104 -5721 0
5093 5104 -5721 0
-5093 5104 5721 0
5093 -5104 5721 0
-5721 -5113 -5689 0
5721 5113 -5689 0
-5721 5113 5689 0
5721 -5113 5689 0
-5094 -5105 -5722 0
5094 5105 -5722 0
-5094 5105 5722 0
5094 -5105 5722 0
-5722 -5114 -5690 0
5722 5114 -5690 0
-5722 5114 5690 0
5722 -5114 5690 0
-5095 -5106 -5723 0
5095 5106 -5723 0
-5095 5106 5723 0
5095 -5106 5723 0
-5723 -5115 -5691 0
5723 5115 -5691 0
-5723 5115 5691 0
5723 -5115 5691 0
-5096 -5107 -5724 0
5096 5107 -5724 0
-5096 5107 5724 0
5096 -5107 5724 0
-5724 -5116 -5692 0
5724 5116 -5692 0
-5724 5116 5692 0
5724 -5116 5692 0
-5097 -5108 -5725 0
5097 5108 -5725 0
-5097 5108 5725 0
5097 -5108 5725 0
-5725 -5085 -5693 0
5725 5085 -5693 0
-5725 5085 5693 0
5725 -5085 5693 0
-5098 -5109 -5726 0
5098 5109 -5726 0
-5098 5109 5726 0
5098 -5109 5726 0
-5726 -5086 -5694 0
5726 5086 -5694 0
-5726 5086 5694 0
5726 -5086 5694 0
-5099 -5110 -5727 0
5099 5110 -5727 0
-5099 5110 5727 0
5099 -5110 5727 0
-5727 -5087 -5695 0
5727 5087 -5695 0
-5727 5087 5695 0
5727 -5087 5695 0
-5100 -5111 -5728 0
5100 5111 -5728 0
-5100 5111 5728 0
5100 -5111 5728 0
-5728 -5088 -5696 0
5728 5088 -5696 0
-5728 5088 5696 0
5728 -5088 5696 0
-5101 -5112 -5729 0
5101 5112 -5729 0
-5101 5112 5729 0
5101 -5112 5729 0
-5729 -5089 -5697 0
5729 5089 -5697 0
-5729 5089 5697 0
5729 -5089 5697 0
-5102 -5113 -5730 0
5102 5113 -5730 0
-5102 5113 5730 0
5102 -5113 5730 0
-5730 -5090 -5698 0
5730 5090 -5698 0
-5730 5090 5698 0
5730 -5090 5698 0
-5103 -5114 -5731 0
5103 5114 -5731 0
-5103 5114 5731 0
5103 -5114 5731 0
-5731 -5091 -5699 0
5731 5091 -5699 0
-5731 5091 5699 0
5731 -5091 5699 0
-5104 -5115 -5732 0
5104 5115 -5732 0
-5104 5115 5732 0
5104 -5115 5732 0
-5732 -5092 -5700 0
5732 5092 -5700 0
-5732 5092 5700 0
5732 -5092 5700 0
-5105 -5116 -5733 0
5105 5116 -5733 0
-5105 5116 5733 0
5105 -5116 5733 0
-5733 -5093 -5701 0
5733 5093 -5701 0
-5733 5093 5701 0
5733 -5093 5701 0
-5106 -5085 -5734 0
5106 5085 -5734 0
-5106 5085 5734 0
5106 -5085 5734 0
-5734 -5094 -5702 0
5734 5094 -5702 0
-5734 5094 5702 0
5734 -5094 5702 0
-5107 -5086 -5735 0
5107 5086 -5735 0
-5107 5086 5735 0
5107 -5086 5735 0
-5735 -5095 -5703 0
5735 5095 -5703 0
-5735 5095 5703 0
5735 -5095 5703 0
-5108 -5087 -5736 0
5108 5087 -5736 0
-5108 5087 5736 0
5108 -5087 5736 0
-5736 -5096 -5704 0
5736 5096 -5704 0
-5736 5096 5704 0
5736 -5096 5704 0
-5109 -5088 -5737 0
5109 5088 -5737 0
-5109 5088 5737 0
5109 -5088 5737 0
-5737 -5097 -5705 0
5737 5097 -5705 0
-5737 5097 5705 0
5737 -5097 5705 0
-5110 -5089 -5738 0
5110 5089 -5738 0
-5110 5089 5738 0
5110 -5089 5738 0
-5738 -5098 -5706 0
5738 5098 -5706 0
-5738 5098 5706 0
5738 -5098 5706 0
-5111 -5090 -5739 0
5111 5090 -5739 0
-5111 5090 5739 0
5111 -5090 5739 0
-5739 -5099 -5707 0
5739 5099 -5707 0
-5739 5099 5707 0
5739 -5099 5707 0
-5112 -5091 -5740 0
5112 5091 -5740 0
-5112 5091 5740 0
5112 -5091 5740 0
-5740 -5100 -5708 0
5740 5100 -5708 0
-5740 5100 5708 0
5740 -5100 5708 0
-5113 -5092 -5741 0
5113 5092 -5741 0
-5113 5092 5741 0
5113 -5092 5741 0
-5741 -5101 -5709 0
5741 5101 -5709 0
-5741 5101 5709 0
5741 -5101 5709 0
-5114 -5093 -5742 0
5114 5093 -5742 0
-5114 5093 5742 0
5114 -5093 5742 0
-5742 -5102 -5710 0
5742 5102 -5710 0
-5742 5102 5710 0
5742 -5102 5710 0
-5115 -5094 -5743 0
5115 5094 -5743 0
-5115 5094 5743 0
5115 -5094 5743 0
-5743 -5103 -5711 0
5743 5103 -5711 0
-5743 5103 5711 0
5743 -5103 5711 0
-5116 -5095 -5744 0
5116 5095 -5744 0
-5116 5095 5744 0
5116 -5095 5744 0
-5744 -5104 -5712 0
5744 5104 -5712 0
-5744 5104 5712 0
5744 -5104 5712 0
-5085 -5096 -5745 0
5085 5096 -5745 0
-5085 5096 5745 0
5085 -5096 5745 0
-5745 -5105 -5713 0
5745 5105 -5713 0
-5745 5105 5713 0
5745 -5105 5713 0
-5086 -5097 -5746 0
5086 5097 -5746 0
-5086 5097 5746 0
5086 -5097 5746 0
-5746 -5106 -5714 0
5746 5106 -5714 0
-5746 5106 5714 0
5746 -5106 5714 0
-5085 -4203 5747 0
-5085 -3321 5747 0
-4203 -3321 5747 0
5085 4203 -5747 0
5085 3321 -5747 0
4203 3321 -5747 0
-5086 -4204 5748 0
-5086 -3322 5748 0
-4204 -3322 5748 0
5086 4204 -5748 0
5086 3322 -5748 0
4204 3322 -5748 0
-5087 -4205 5749 0
-5087 -3323 5749 0
-4205 -3323 5749 0
5087 4205 -5749 0
5087 3323 -5749 0
4205 3323 -5749 0
-5088 -4206 5750 0
-5088 -3324 5750 0
-4206 -3324 5750 0
5088 4206 -5750 0
5088 3324 -5750 0
4206 3324 -5750 0
-5089 -4207 5751 0
-5089 -3325 5751 0
-4207 -3325 5751 0
5089 4207 -5751 0
5089 3325 -5751 0
4207 3325 -5751 0
-5090 -4208 5752 0
-5090 -3326 5752 0
-4208 -3326 5752 0
5090 4208 -5752 0
5090 3326 -5752 0
4208 3326 -5752 0
-5091 -4209 5753 0
-5091 -3327 5753 0
-4209 -3327 5753 0
5091 4209 -5753 0
5091 3327 -5753 0
4209 3327 -5753 0
-5092 -4210 5754 0
-5092 -3328 5754 0
-4210 -3328 5754 0
5092 4210 -5754 0
5092 3328 -5754 0
4210 3328 -5754 0
-5093 -4211 5755 0
-5093 -3329 5755 0
-4211 -3329 5755 0
5093 4211 -5755 0
5093 3329 -5755 0
4211 3329 -5755 0
-5094 -4212 5756 0
-5094 -3330 5756 0
-4212 -3330 5756 0
5094 4212 -5756 0
5094 3330 -5756 0
4212 3330 -5756 0
-5095 -4213 5757 0
-5095 -3331 5757 0
-4213 -3331 5757 0
5095 4213 -5757 0
5095 3331 -5757 0
4213 3331 -5757 0
-5096 -4214 5758 0
-5096 -3332 5758 0
-4214 -3332 5758 0
5096 4214 -5758 0
5096 3332 -5758 0
4214 3332 -5758 0
-5097 -4215 5759 0
-5097 -3333 5759 0
-4215 -3333 5759 0
5097 4215 -5759 0
5097 3333 -5759 0
4215 3333 -5759 0
-5098 -4216 5760 0
-5098 -3334 5760 0
-4216 -3334 5760 0
5098 4216 -5760 0
5098 3334 -5760 0
4216 3334 -5760 0
-5099 -4217 5761 0
-5099 -3335 5761 0
-4217 -3335 5761 0
5099 4217 -5761 0
5099 3335 -5761 0
4217 3335 -5761 0
-5100 -4218 5762 0
-5100 -3336 5762 0
-4218 -3336 5762 0
5100 4218 -5762 0
5100 3336 -5762 0
4218 3336 -5762 0
-5101 -4219 5763 0
-5101 -3337 5763 0
-4219 -3337 5763 0
5101 4219 -5763 0
5101 3337 -5763 0
4219 3337 -5763 0
-5102 -4220 5764 0
-5102 -3338 5764 0
-4220 -3338 5764 0
5102 4220 -5764 0
5102 3338 -5764 0
4220 3338 -5764 0
-5103 -4221 5765 0
-5103 -3339 5765 0
-4221 -3339 5765 0
5103 4221 -5765 0
5103 3339 -5765 0
4221 3339 -5765 0
-5104 -4222 5766 0
-5104 -3340 5766 0
-4222 -3340 5766 0
5104 4222 -5766 0
5104 3340 -5766 0
4222 3340 -5766 0
-5105 -4223 5767 0
-5105 -3341 5767 0
-4223 -3341 5767 0
5105 4223 -5767 0
5105 3341 -5767 0
4223 3341 -5767 0
-5106 -4224 5768 0
-5106 -3342 5768 0
-4224 -3342 5768 0
5106 4224 -5768 0
5106 3342 -5768 0
4224 3342 -5768 0
-5107 -4225 5769 0
-5107 -3343 5769 0
-4225 -3343 5769 0
5107 4225 -5769 0
5107 3343 -5769 0
4225 3343 -5769 0
-5108 -4226 5770 0
-5108 -3344 5770 0
-4226 -3344 5770 0
5108 4226 -5770 0
5108 3344 -5770 0
4226 3344 -5770 0
-5109 -4227 5771 0
-5109 -3345 5771 0
-4227 -3345 5771 0
5109 4227 -5771 0
5109 3345 -5771 0
4227 3345 -5771 0
-5110 -4228 5772 0
-5110 -3346 5772 0
-4228 -3346 5772 0
5110 4228 -5772 0
5110 3346 -5772 0
4228 3346 -5772 0
-5111 -4229 5773 0
-5111 -3347 5773 0
-4229 -3347 5773 0
5111 4229 -5773 0
5111 3347 -5773 0
4229 3347 -5773 0
-5112 -4230 5774 0
-5112 -3348 5774 0
-4230 -3348 5774 0
5112 4230 -5774 0
5112 3348 -5774 0
4230 3348 -5774 0
-5113 -4231 5775 0
-5113 -3349 5775 0
-4231 -3349 5775 0
5113 4231 -5775 0
5113 3349 -5775 0
4231 3349 -5775 0
-5114 -4232 5776 0
-5114 -3350 5776 0
-4232 -3350 5776 0
5114 4232 -5776 0
5114 3350 -5776 0
4232 3350 -5776 0
-5115 -4233 5777 0
-5115 -3351 5777 0
-4233 -3351 5777 0
5115 4233 -5777 0
5115 3351 -5777 0
4233 3351 -5777 0
-5116 -4234 5778 0
-5116 -3352 5778 0
-4234 -3352 5778 0
5116 4234 -5778 0
5116 3352 -5778 0
4234 3352 -5778 0
-5683 -5747 -5779 0
5683 5747 -5779 0
-5683 5747 5779 0
5683 -5747 5779 0
-5683 -5747 5811 0
5683 -5811 0
5747 -5811 0
-5684 -5748 -5812 0
5684 5748 -5812 0
-5684 5748 5812 0
5684 -5748 5812 0
-5812 -5811 -5780 0
5812 5811 -5780 0
-5812 5811 5780 0
5812 -5811 5780 0
-5684 -5748 5813 0
-5684 -5811 5813 0
-5748 -5811 5813 0
5684 5748 -5813 0
5684 5811 -5813 0
5748 5811 -5813 0
-5685 -5749 -5814 0
5685 5749 -5814 0
-5685 5749 5814 0
5685 -5749 5814 0
-5814 -5813 -5781 0
5814 5813 -5781 0
-5814 5813 5781 0
5814 -5813 5781 0
-5685 -5749 5815 0
-5685 -5813 5815 0
-5749 -5813 5815 0
5685 5749 -5815 0
5685 5813 -5815 0
5749 5813 -5815 0
-5686 -5750 -5816 0
5686 5750 -5816 0
-5686 5750 5816 0
5686 -5750 5816 0
-5816 -5815 -5782 0
5816 5815 -5782 0
-5816 5815 5782 0
5816 -5815 5782 0
-5686 -5750 5817 0
-5686 -5815 5817 0
-5750 -5815 5817 0
5686 5750 -5817 0
5686 5815 -5817 0
5750 5815 -5817 0
-5687 -5751 -5818 0
5687 5751 -5818 0
-5687 5751 5818 0
5687 -5751 5818 0
-5818 -5817 -5783 0
5818 5817 -5783 0
-5818 5817 5783 0
5818 -5817 5783 0
-5687 -5751 5819 0
-5687 -5817 5819 0
-5751 -5817 5819 0
5687 5751 -5819 0
5687 5817 -5819 0
5751 5817 -5819 0
-5688 -5752 -5820 0
5688 5752 -5820 0
-5688 5752 5820 0
5688 -5752 5820 0
-5820 -5819 -5784 0
5820 5819 -5784 0
-5820 5819 5784 0
5820 -5819 5784 0
-5688 -5752 5821 0
-5688 -5819 5821 0
-5752 -5819 5821 0
5688 5752 -5821 0
5688 5819 -5821 0
5752 5819 -5821 0
-5689 -5753 -5822 0
5689 5753 -5822 0
-5689 5753 5822 0
5689 -5753 5822 0
-5822 -5821 -5785 0
5822 5821 -5785 0
-5822 5821 5785 0
5822 -5821 5785 0
-5689 -5753 5823 0
-5689 -5821 5823 0
-5753 -5821 5823 0
5689 5753 -5823 0
5689 5821 -5823 0
5753 5821 -5823 0
-5690 -5754 -5824 0
5690 5754 -5824 0
-5690 5754 5824 0
5690 -5754 5824 0
-5824 -5823 -5786 0
5824 5823 -5786 0
-5824 5823 5786 0
5824 -5823 5786 0
-5690 -5754 5825 0
-5690 -5823 5825 0
-5754 -5823 5825 0
5690 5754 -5825 0
5690 5823 -5825 0
5754 5823 -5825 0
-5691 -5755 -5826 0
5691 5755 -5826 0
-5691 5755 5826 0
5691 -5755 5826 0
-5826 -5825 -5787 0
5826 5825 -5787 0
-5826 5825 5787 0
5826 -5825 5787 0
-5691 -5755 5827 0
-5691 -5825 5827 0
-5755 -5825 5827 0
5691 5755 -5827 0
5691 5825 -5827 0
5755 5825 -5827 0
-5692 -5756 -5828 0
5692 5756 -5828 0
-5692 5756 5828 0
5692 -5756 5828 0
-5828 -5827 -5788 0
5828 5827 -5788 0
-5828 5827 5788 0
5828 -5827 5788 0
-5692 -5756 5829 0
-5692 -5827 5829 0
-5756 -5827 5829 0
5692 5756 -5829 0
5692 5827 -5829 0
5756 5827 -5829 0
-5693 -5757 -5830 0
5693 5757 -5830 0
-5693 5757 5830 0
5693 -5757 5830 0
-5830 -5829 -5789 0
5830 5829 -5789 0
-5830 5829 5789 0
5830 -5829 5789 0
-5693 -5757 5831 0
-5693 -5829 5831 0
-5757 -5829 5831 0
5693 5757 -5831 0
5693 5829 -5831 0
5757 5829 -5831 0
-5694 -5758 -5832 0
5694 5758 -5832 0
-5694 5758 5832 0
5694 -5758 5832 0
-5832 -5831 -5790 0
5832 5831 -5790 0
-5832 5831 5790 0
5832 -5831 5790 0
-5694 -5758 5833 0
-5694 -5831 5833 0
-5758 -5831 5833 0
5694 5758 -5833 0
5694 5831 -5833 0
5758 5831 -5833 0
-5695 -5759 -5834 0
5695 5759 -5834 0
-5695 5759 5834 0
5695 -5759 5834 0
-5834 -5833 -5791 0
5834 5833 -5791 0
-5834 5833 5791 0
5834 -5833 5791 0
-5695 -5759 5835 0
-5695 -5833 5835 0
-5759 -5833 5835 0
5695 5759 -5835 0
5695 5833 -5835 0
5759 5833 -5835 0
-5696 -5760 -5836 0
5696 5760 -5836 0
-5696 5760 5836 0
5696 -5760 5836 0
-5836 -5835 -5792 0
5836 5835 -5792 0
-5836 5835 5792 0
5836 -5835 5792 0
-5696 -5760 5837 0
-5696 -5835 5837 0
-5760 -5835 5837 0
5696 5760 -5837 0
5696 5835 -5837 0
5760 5835 -5837 0
-5697 -5761 -5838 0
5697 5761 -5838 0
-5697 5761 5838 0
5697 -5761 5838 0
-5838 -5837 -5793 0
5838 5837 -5793 0
-5838 5837 5793 0
5838 -5837 5793 0
-5697 -5761 5839 0
-5697 -5837 5839 0
-5761 -5837 5839 0
5697 5761 -5839 0
5697 5837 -5839 0
5761 5837 -5839 0
-5698 -5762 -5840 0
5698 5762 -5840 0
-5698 5762 5840 0
5698 -5762 5840 0
-5840 -5839 -5794 0
5840 5839 -5794 0
-5840 5839 5794 0
5840 -5839 5794 0
-5698 -5762 5841 0
-5698 -5839 5841 0
-5762 -5839 5841 0
5698 5762 -5841 0
5698 5839 -5841 0
5762 5839 -5841 0
-5699 -5763 -5842 0
5699 5763 -5842 0
-5699 5763 5842 0
5699 -5763 5842 0
-5842 -5841 -5795 0
5842 5841 -5795 0
-5842 5841 5795 0
5842 -5841 5795 0
-5699 -5763 5843 0
-5699 -5841 5843 0
-5763 -5841 5843 0
5699 5763 -5843 0
5699 5841 -5843 0
5763 5841 -5843 0
-5700 -5764 -5844 0
5700 5764 -5844 0
-5700 5764 5844 0
5700 -5764 5844 0
-5844 -5843 -5796 0
5844 5843 -5796 0
-5844 5843 5796 0
5844 -5843 5796 0
-5700 -5764 5845 0
-5700 -5843 5845 0
-5764 -5843 5845 0
5700 5764 -5845 0
5700 5843 -5845 0
5764 5843 -5845 0
-5701 -5765 -5846 0
5701 5765 -5846 0
-5701 5765 5846 0
5701 -5765 5846 0
-5846 -5845 -5797 0
5846 5845 -5797 0
-5846 5845 5797 0
5846 -5845 5797 0
-5701 -5765 5847 0
-5701 -5845 5847 0
-5765 -5845 5847 0
5701 5765 -5847 0
5701 5845 -5847 0
5765 5845 -5847 0
-5702 -5766 -5848 0
5702 5766 -5848 0
-5702 5766 5848 0
5702 -5766 5848 0
-5848 -5847 -5798 0
5848 5847 -5798 0
-5848 5847 5798 0
5848 -5847 5798 0
-5702 -5766 5849 0
-5702 -5847 5849 0
-5766 -5847 5849 0
5702 5766 -5849 0
5702 5847 -5849 0
5766 5847 -5849 0
-5703 -5767 -5850 0
5703 5767 -5850 0
-5703 5767 5850 0
5703 -5767 5850 0
-5850 -5849 -5799 0
5850 5849 -5799 0
-5850 5849 5799 0
5850 -5849 5799 0
-5703 -5767 5851 0
-5703 -5849 5851 0
-5767 -5849 5851 0
5703 5767 -5851 0
5703 5849 -5851 0
5767 5849 -5851 0
-5704 -5768 -5852 0
5704 5768 -5852 0
-5704 5768 5852 0
5704 -5768 5852 0
-5852 -5851 -5800 0
5852 5851 -5800 0
-5852 5851 5800 0
5852 -5851 5800 0
-5704 -5768 5853 0
-5704 -5851 5853 0
-5768 -5851 5853 0
5704 5768 -5853 0
5704 5851 -5853 0
5768 5851 -5853 0
-5705 -5769 -5854 0
5705 5769 -5854 0
-5705 5769 5854 0
5705 -5769 5854 0
-5854 -5853 -5801 0
5854 5853 -5801 0
-5854 5853 5801 0
5854 -5853 5801 0
-5705 -5769 5855 0
-5705 -5853 5855 0
-5769 -5853 5855 0
5705 5769 -5855 0
5705 5853 -5855 0
5769 5853 -5855 0
-5706 -5770 -5856 0
5706 5770 -5856 0
-5706 5770 5856 0
5706 -5770 5856 0
-5856 -5855 -5802 0
5856 5855 -5802 0
-5856 5855 5802 0
5856 -5855 5802 0
-5706 -5770 5857 0
-5706 -5855 5857 0
-5770 -5855 5857 0
5706 5770 -5857 0
5706 5855 -5857 0
5770 5855 -5857 0
-5707 -5771 -5858 0
5707 5771 -5858 0
-5707 5771 5858 0
5707 -5771 5858 0
-5858 -5857 -5803 0
5858 5857 -5803 0
-5858 5857 5803 0
5858 -5857 5803 0
-5707 -5771 5859 0
-5707 -5857 5859 0
-5771 -5857 5859 0
5707 5771 -5859 0
5707 5857 -5859 0
5771 5857 -5859 0
-5708 -5772 -5860 0
5708 5772 -5860 0
-5708 5772 5860 0
5708 -5772 5860 0
-5860 -5859 -5804 0
5860 5859 -5804 0
-5860 5859 5804 0
5860 -5859 5804 0
-5708 -5772 5861 0
-5708 -5859 5861 0
-5772 -5859 5861 0
5708 5772 -5861 0
5708 5859 -5861 0
5772 5859 -5861 0
-5709 -5773 -5862 0
5709 5773 -5862 0
-5709 5773 5862 0
5709 -5773 5862 0
-5862 -5861 -5805 0
5862 5861 -5805 0
-5862 5861 5805 0
5862 -5861 5805 0
-5709 -5773 5863 0
-5709 -5861 5863 0
-5773 -5861 5863 0
5709 5773 -5863 0
5709 5861 -5863 0
5773 5861 -5863 0
-5710 -5774 -5864 0
5710 5774 -5864 0
-5710 5774 5864 0
5710 -5774 5864 0
-5864 -5863 -5806 0
5864 5863 -5806 0
-5864 5863 5806 0
5864 -5863 5806 0
-5710 -5774 5865 0
-5710 -5863 5865 0
-5774 -5863 5865 0
5710 5774 -5865 0
5710 5863 -5865 0
5774 5863 -5865 0
-5711 -5775 -5866 0
5711 5775 -5866 0
-5711 5775 5866 0
5711 -5775 5866 0
-5866 -5865 -5807 0
5866 5865 -5807 0
-5866 5865 5807 0
5866 -5865 5807 0
-5711 -5775 5867 0
-5711 -5865 5867 0
-5775 -5865 5867 0
5711 5775 -5867 0
5711 5865 -5867 0
5775 5865 -5867 0
-5712 -5776 -5868 0
5712 5776 -5868 0
-5712 5776 5868 0
5712 -5776 5868 0
-5868 -5867 -5808 0
5868 5867 -5808 0
-5868 5867 5808 0
5868 -5867 5808 0
-5712 -5776 5869 0
-5712 -5867 5869 0
-5776 -5867 5869 0
5712 5776 -5869 0
5712 5867 -5869 0
5776 5867 -5869 0
-5713 -5777 -5870 0
5713 5777 -5870 0
-5713 5777 5870 0
5713 -5777 5870 0
-5870 -5869 -5809 0
5870 5869 -5809 0
-5870 5869 5809 0
5870 -5869 5809 0
-5713 -5777 5871 0
-5713 -5869 5871 0
-5777 -5869 5871 0
5713 5777 -5871 0
5713 5869 -5871 0
5777 5869 -5871 0
-5714 -5778 -5872 0
5714 5778 -5872 0
-5714 5778 5872 0
5714 -5778 5872 0
-5872 -5871 -5810 0
5872 5871 -5810 0
-5872 5871 5810 0
5872 -5871 5810 0
-2439 -5589 -5873 0
2439 5589 -5873 0
-2439 5589 5873 0
2439 -5589 5873 0
-2439 -5589 5905 0
2439 -5905 0
5589 -5905 0
-2440 -5590 -5906 0
2440 5590 -5906 0
-2440 5590 5906 0
2440 -5590 5906 0
-5906 -5905 -5874 0
5906 5905 -5874 0
-5906 5905 5874 0
5906 -5905 5874 0
-2440 -5590 5907 0
-2440 -5905 5907 0
-5590 -5905 5907 0
2440 5590 -5907 0
2440 5905 -5907 0
5590 5905 -5907 0
-2441 -5591 -5908 0
2441 5591 -5908 0
-2441 5591 5908 0
2441 -5591 5908 0
-5908 -5907 -5875 0
5908 5907 -5875 0
-5908 5907 5875 0
5908 -5907 5875 0
-2441 -5591 5909 0
-2441 -5907 5909 0
-5591 -5907 5909 0
2441 5591 -5909 0
2441 5907 -5909 0
5591 5907 -5909 0
-2442 -5592 -5910 0
2442 5592 -5910 0
-2442 5592 5910 0
2442 -5592 5910 0
-5910 -5909 -5876 0
5910 5909 -5876 0
-5910 5909 5876 0
5910 -5909 5876 0
-2442 -5592 5911 0
-2442 -5909 5911 0
-5592 -5909 5911 0
2442 5592 -5911 0
2442 5909 -5911 0
5592 5909 -5911 0
-2443 -5593 -5912 0
2443 5593 -5912 0
-2443 5593 5912 0
2443 -5593 5912 0
-5912 -5911 -5877 0
5912 5911 -5877 0
-5912 5911 5877 0
5912 -5911 5877 0
-2443 -5593 5913 0
-2443 -5911 5913 0
-5593 -5911 5913 0
2443 5593 -5913 0
2443 5911 -5913 0
5593 5911 -5913 0
-2444 -5594 -5914 0
2444 5594 -5914 0
-2444 5594 5914 0
2444 -5594 5914 0
-5914 -5913 -5878 0
5914 5913 -5878 0
-5914 5913 5878 0
5914 -5913 5878 0
-2444 -5594 5915 0
-2444 -5913 5915 0
-5594 -5913 5915 0
2444 5594 -5915 0
2444 5913 -5915 0
5594 5913 -5915 0
-2445 -5595 -5916 0
2445 5595 -5916 0
-2445 5595 5916 0
2445 -5595 5916 0
-5916 -5915 -5879 0
5916 5915 -5879 0
-5916 5915 5879 0
5916 -5915 5879 0
-2445 -5595 5917 0
-2445 -5915 5917 0
-5595 -5915 5917 0
2445 5595 -5917 0
2445 5915 -5917 0
5595 5915 -5917 0
-2446 -5596 -5918 0
2446 5596 -5918 0
-2446 5596 5918 0
2446 -5596 5918 0
-5918 -5917 -5880 0
5918 5917 -5880 0
-5918 5917 5880 0
5918 -5917 5880 0
-2446 -5596 5919 0
-2446 -5917 5919 0
-5596 -5917 5919 0
2446 5596 -5919 0
2446 5917 -5919 0
5596 5917 -5919 0
-2447 -5597 -5920 0
2447 5597 -5920 0
-2447 5597 5920 0
2447 -5597 5920 0
-5920 -5919 -5881 0
5920 5919 -5881 0
-5920 5919 5881 0
5920 -5919 5881 0
-2447 -5597 5921 0
-2447 -5919 5921 0
-5597 -5919 5921 0
2447 5597 -5921 0
2447 5919 -5921 0
5597 5919 -5921 0
-2448 -5598 -5922 0
2448 5598 -5922 0
-2448 5598 5922 0
2448 -5598 5922 0
-5922 -5921 -5882 0
5922 5921 -5882 0
-5922 5921 5882 0
5922 -5921 5882 0
-2448 -5598 5923 0
-2448 -5921 5923 0
-5598 -5921 5923 0
2448 5598 -5923 0
2448 5921 -5923 0
5598 5921 -5923 0
-2449 -5599 -5924 0
2449 5599 -5924 0
-2449 5599 5924 0
2449 -5599 5924 0
-5924 -5923 -5883 0
5924 5923 -5883 0
-5924 5923 5883 0
5924 -5923 5883 0
-2449 -5599 5925 0
-2449 -5923 5925 0
-5599 -5923 5925 0
2449 5599 -5925 0
2449 5923 -5925 0
5599 5923 -5925 0
-2450 -5600 -5926 0
2450 5600 -5926 0
-2450 5600 5926 0
2450 -5600 5926 0
-5926 -5925 -5884 0
5926 5925 -5884 0
-5926 5925 5884 0
5926 -5925 5884 0
-2450 -5600 5927 0
-2450 -5925 5927 0
-5600 -5925 5927 0
2450 5600 -5927 0
2450 5925 -5927 0
5600 5925 -5927 0
-2451 -5601 -5928 0
2451 5601 -5928 0
-2451 5601 5928 0
2451 -5601 5928 0
-5928 -5927 -5885 0
5928 5927 -5885 0
-5928 5927 5885 0
5928 -5927 5885 0
-2451 -5601 5929 0
-2451 -5927 5929 0
-5601 -5927 5929 0
2451 5601 -5929 0
2451 5927 -5929 0
5601 5927 -5929 0
-2452 -5602 -5930 0
2452 5602 -5930 0
-2452 5602 5930 0
2452 -5602 5930 0
-5930 -5929 -5886 0
5930 5929 -5886 0
-5930 5929 5886 0
5930 -5929 5886 0
-2452 -5602 5931 0
-2452 -5929 5931 0
-5602 -5929 5931 0
2452 5602 -5931 0
2452 5929 -5931 0
5602 5929 -5931 0
-2453 -5603 -5932 0
2453 5603 -5932 0
-2453 5603 5932 0
2453 -5603 5932 0
-5932 -5931 -5887 0
5932 5931 -5887 0
-5932 5931 5887 0
5932 -5931 5887 0
-2453 -5603 5933 0
-2453 -5931 5933 0
-5603 -5931 5933 0
2453 5603 -5933 0
2453 5931 -5933 0
5603 5931 -5933 0
-2454 -5604 -5934 0
2454 5604 -5934 0
-2454 5604 5934 0
2454 -5604 5934 0
-5934 -5933 -5888 0
5934 5933 -5888 0
-5934 5933 5888 0
5934 -5933 5888 0
-2454 -5604 5935 0
-2454 -5933 5935 0
-5604 -5933 5935 0
2454 5604 -5935 0
2454 5933 -5935 0
5604 5933 -5935 0
-2455 -5605 -5936 0
2455 5605 -5936 0
-2455 5605 5936 0
2455 -5605 5936 0
-5936 -5935 -5889 0
5936 5935 -5889 0
-5936 5935 5889 0
5936 -5935 5889 0
-2455 -5605 5937 0
-2455 -5935 5937 0
-5605 -5935 5937 0
2455 5605 -5937 0
2455 5935 -5937 0
5605 5935 -5937 0
-2456 -5606 -5938 0
2456 5606 -5938 0
-2456 5606 5938 0
2456 -5606 5938 0
-5938 -5937 -5890 0
5938 5937 -5890 0
-5938 5937 5890 0
5938 -5937 5890 0
-2456 -5606 5939 0
-2456 -5937 5939 0
-5606 -5937 5939 0
2456 5606 -5939 0
2456 5937 -5939 0
5606 5937 -5939 0
-2457 -5607 -5940 0
2457 5607 -5940 0
-2457 5607 5940 0
2457 -5607 5940 0
-5940 -5939 -5891 0
5940 5939 -5891 0
-5940 5939 5891 0
5940 -5939 5891 0
-2457 -5607 5941 0
-2457 -5939 5941 0
-5607 -5939 5941 0
2457 5607 -5941 0
2457 5939 -5941 0
5607 5939 -5941 0
-2458 -5608 -5942 0
2458 5608 -5942 0
-2458 5608 5942 0
2458 -5608 5942 0
-5942 -5941 -5892 0
5942 5941 -5892 0
-5942 5941 5892 0
5942 -5941 5892 0
-2458 -5608 5943 0
-2458 -5941 5943 0
-5608 -5941 5943 0
2458 5608 -5943 0
2458 5941 -5943 0
5608 5941 -5943 0
-2459 -5609 -5944 0
2459 5609 -5944 0
-2459 5609 5944 0
2459 -5609 5944 0
-5944 -5943 -5893 0
5944 5943 -5893 0
-5944 5943 5893 0
5944 -5943 5893 0
-2459 -5609 5945 0
-2459 -5943 5945 0
-5609 -5943 5945 0
2459 5609 -5945 0
2459 5943 -5945 0
5609 5943 -5945 0
-2460 -5610 -5946 0
2460 5610 -5946 0
-2460 5610 5946 0
2460 -5610 5946 0
-5946 -5945 -5894 0
5946 5945 -5894 0
-5946 5945 5894 0
5946 -5945 5894 0
-2460 -5610 5947 0
-2460 -5945 5947 0
-5610 -5945 5947 0
2460 5610 -5947 0
2460 5945 -5947 0
5610 5945 -5947 0
-2461 -5611 -5948 0
2461 5611 -5948 0
-2461 5611 5948 0
2461 -5611 5948 0
-5948 -5947 -5895 0
5948 5947 -5895 0
-5948 5947 5895 0
5948 -5947 5895 0
-2461 -5611 5949 0
-2461 -5947 5949 0
-5611 -5947 5949 0
2461 5611 -5949 0
2461 5947 -5949 0
5611 5947 -5949 0
-2462 -5612 -5950 0
2462 5612 -5950 0
-2462 5612 5950 0
2462 -5612 5950 0
-5950 -5949 -5896 0
5950 5949 -5896 0
-5950 5949 5896 0
5950 -5949 5896 0
-2462 -5612 5951 0
-2462 -5949 5951 0
-5612 -5949 5951 0
2462 5612 -5951 0
2462 5949 -5951 0
5612 5949 -5951 0
-2463 -5613 -5952 0
2463 5613 -5952 0
-2463 5613 5952 0
2463 -5613 5952 0
-5952 -5951 -5897 0
5952 5951 -5897 0
-5952 5951 5897 0
5952 -5951 5897 0
-2463 -5613 5953 0
-2463 -5951 5953 0
-5613 -5951 5953 0
2463 5613 -5953 0
2463 5951 -5953 0
5613 5951 -5953 0
-2464 -5614 -5954 0
2464 5614 -5954 0
-2464 5614 5954 0
2464 -5614 5954 0
-5954 -5953 -5898 0
5954 5953 -5898 0
-5954 5953 5898 0
5954 -5953 5898 0
-2464 -5614 5955 0
-2464 -5953 5955 0
-5614 -5953 5955 0
2464 5614 -5955 0
2464 5953 -5955 0
5614 5953 -5955 0
-2465 -5615 -5956 0
2465 5615 -5956 0
-2465 5615 5956 0
2465 -5615 5956 0
-5956 -5955 -5899 0
5956 5955 -5899 0
-5956 5955 5899 0
5956 -5955 5899 0
-2465 -5615 5957 0
-2465 -5955 5957 0
-5615 -5955 5957 0
2465 5615 -5957 0
2465 5955 -5957 0
5615 5955 -5957 0
-2466 -5616 -5958 0
2466 5616 -5958 0
-2466 5616 5958 0
2466 -5616 5958 0
-5958 -5957 -5900 0
5958 5957 -5900 0
-5958 5957 5900 0
5958 -5957 5900 0
-2466 -5616 5959 0
-2466 -5957 5959 0
-5616 -5957 5959 0
2466 5616 -5959 0
2466 5957 -5959 0
5616 5957 -5959 0
-2467 -5617 -5960 0
2467 5617 -5960 0
-2467 5617 5960 0
2467 -5617 5960 0
-5960 -5959 -5901 0
5960 5959 -5901 0
-5960 5959 5901 0
5960 -5959 5901 0
-2467 -5617 5961 0
-2467 -5959 5961 0
-5617 -5959 5961 0
2467 5617 -5961 0
2467 5959 -5961 0
5617 5959 -5961 0
-2468 -5618 -5962 0
2468 5618 -5962 0
-2468 5618 5962 0
2468 -5618 5962 0
-5962 -5961 -5902 0
5962 5961 -5902 0
-5962 5961 5902 0
5962 -5961 5902 0
-2468 -5618 5963 0
-2468 -5961 5963 0
-5618 -5961 5963 0
2468 5618 -5963 0
2468 5961 -5963 0
5618 5961 -5963 0
-2469 -5619 -5964 0
2469 5619 -5964 0
-2469 5619 5964 0
2469 -5619 5964 0
-5964 -5963 -5903 0
5964 5963 -5903 0
-5964 5963 5903 0
5964 -5963 5903 0
-2469 -5619 5965 0
-2469 -5963 5965 0
-5619 -5963 5965 0
2469 5619 -5965 0
2469 5963 -5965 0
5619 5963 -5965 0
-2470 -5620 -5966 0
2470 5620 -5966 0
-2470 5620 5966 0
2470 -5620 5966 0
-5966 -5965 -5904 0
5966 5965 -5904 0
-5966 5965 5904 0
5966 -5965 5904 0
-5589 -5779 -5967 0
5589 5779 -5967 0
-5589 5779 5967 0
5589 -5779 5967 0
-5589 -5779 5999 0
5589 -5999 0
5779 -5999 0
-5590 -5780 -6000 0
5590 5780 -6000 0
-5590 5780 6000 0
5590 -5780 6000 0
-6000 -5999 -5968 0
6000 5999 -5968 0
-6000 5999 5968 0
6000 -5999 5968 0
-5590 -5780 6001 0
-5590 -5999 6001 0
-5780 -5999 6001 0
5590 5780 -6001 0
5590 5999 -6001 0
5780 5999 -6001 0
-5591 -5781 -6002 0
5591 5781 -6002 0
-5591 5781 6002 0
5591 -5781 6002 0
-6002 -6001 -5969 0
6002 6001 -5969 0
-6002 6001 5969 0
6002 -6001 5969 0
-5591 -5781 6003 0
-5591 -6001 6003 0
-5781 -6001 6003 0
5591 5781 -6003 0
5591 6001 -6003 0
5781 6001 -6003 0
-5592 -5782 -6004 0
5592 5782 -6004 0
-5592 5782 6004 0
5592 -5782 6004 0
-6004 -6003 -5970 0
6004 6003 -5970 0
-6004 6003 5970 0
6004 -6003 5970 0
-5592 -5782 6005 0
-5592 -6003 6005 0
-5782 -6003 6005 0
5592 5782 -6005 0
5592 6003 -6005 0
5782 6003 -6005 0
-5593 -5783 -6006 0
5593 5783 -6006 0
-5593 5783 6006 0
5593 -5783 6006 0
-6006 -6005 -5971 0
6006 6005 -5971 0
-6006 6005 5971 0
6006 -6005 5971 0
-5593 -5783 6007 0
-5593 -6005 6007 0
-5783 -6005 6007 0
5593 5783 -6007 0
5593 6005 -6007 0
5783 6005 -6007 0
-5594 -5784 -6008 0
5594 5784 -6008 0
-5594 5784 6008 0
5594 -5784 6008 0
-6008 -6007 -5972 0
6008 6007 -5972 0
-6008 6007 5972 0
6008 -6007 5972 0
-5594 -5784 6009 0
-5594 -6007 6009 0
-5784 -6007 6009 0
5594 5784 -6009 0
5594 6007 -6009 0
5784 6007 -6009 0
-5595 -5785 -6010 0
5595 5785 -6010 0
-5595 5785 6010 0
5595 -5785 6010 0
-6010 -6009 -5973 0
6010 6009 -5973 0
-6010 6009 5973 0
6010 -6009 5973 0
-5595 -5785 6011 0
-5595 -6009 6011 0
-5785 -6009 6011 0
5595 5785 -6011 0
5595 6009 -6011 0
5785 6009 -6011 0
-5596 -5786 -6012 0
5596 5786 -6012 0
-5596 5786 6012 0
5596 -5786 6012 0
-6012 -6011 -5974 0
6012 6011 -5974 0
-6012 6011 5974 0
6012 -6011 5974 0
-5596 -5786 6013 0
-5596 -6011 6013 0
-5786 -6011 6013 0
5596 5786 -6013 0
5596 6011 -6013 0
5786 6011 -6013 0
-5597 -5787 -6014 0
5597 5787 -6014 0
-5597 5787 6014 0
5597 -5787 6014 0
-6014 -6013 -5975 0
6014 6013 -5975 0
-6014 6013 5975 0
6014 -6013 5975 0
-5597 -5787 6015 0
-5597 -6013 6015 0
-5787 -6013 6015 0
5597 5787 -6015 0
5597 6013 -6015 0
5787 6013 -6015 0
-5598 -5788 -6016 0
5598 5788 -6016 0
-5598 5788 6016 0
5598 -5788 6016 0
-6016 -6015 -5976 0
6016 6015 -5976 0
-6016 6015 5976 0
6016 -6015 5976 0
-5598 -5788 6017 0
-5598 -6015 6017 0
-5788 -6015 6017 0
5598 5788 -6017 0
5598 6015 -6017 0
5788 6015 -6017 0
-5599 -5789 -6018 0
5599 5789 -6018 0
-5599 5789 6018 0
5599 -5789 6018 0
-6018 -6017 -5977 0
6018 6017 -5977 0
-6018 6017 5977 0
6018 -6017 5977 0
-5599 -5789 6019 0
-5599 -6017 6019 0
-5789 -6017 6019 0
5599 5789 -6019 0
5599 6017 -6019 0
5789 6017 -6019 0
-5600 -5790 -6020 0
5600 5790 -6020 0
-5600 5790 6020 0
5600 -5790 6020 0
-6020 -6019 -5978 0
6020 6019 -5978 0
-6020 6019 5978 0
6020 -6019 5978 0
-5600 -5790 6021 0
-5600 -6019 6021 0
-5790 -6019 6021 0
5600 5790 -6021 0
5600 6019 -6021 0
5790 6019 -6021 0
-5601 -5791 -6022 0
5601 5791 -6022 0
-5601 5791 6022 0
5601 -5791 6022 0
-6022 -6021 -5979 0
6022 6021 -5979 0
-6022 6021 5979 0
6022 -6021 5979 0
-5601 -5791 6023 0
-5601 -6021 6023 0
-5791 -6021 6023 0
5601 5791 -6023 0
5601 6021 -6023 0
5791 6021 -6023 0
-5602 -5792 -6024 0
5602 5792 -6024 0
-5602 5792 6024 0
5602 -5792 6024 0
-6024 -6023 -5980 0
6024 6023 -5980 0
-6024 6023 5980 0
6024 -6023 5980 0
-5602 -5792 6025 0
-5602 -6023 6025 0
-5792 -6023 6025 0
5602 5792 -6025 0
5602 6023 -6025 0
5792 6023 -6025 0
-5603 -5793 -6026 0
5603 5793 -6026 0
-5603 5793 6026 0
5603 -5793 6026 0
-6026 -6025 -5981 0
6026 6025 -5981 0
-6026 6025 5981 0
6026 -6025 5981 0
-5603 -5793 6027 0
-5603 -6025 6027 0
-5793 -6025 6027 0
5603 5793 -6027 0
5603 6025 -6027 0
5793 6025 -6027 0
-5604 -5794 -6028 0
5604 5794 -6028 0
-5604 5794 6028 0
5604 -5794 6028 0
-6028 -6027 -5982 0
6028 6027 -5982 0
-6028 6027 5982 0
6028 -6027 5982 0
-5604 -5794 6029 0
-5604 -6027 6029 0
-5794 -6027 6029 0
5604 5794 -6029 0
5604 6027 -6029 0
5794 6027 -6029 0
-5605 -5795 -6030 0
5605 5795 -6030 0
-5605 5795 6030 0
5605 -5795 6030 0
-6030 -6029 -5983 0
6030 6029 -5983 0
-6030 6029 5983 0
6030 -6029 5983 0
-5605 -5795 6031 0
-5605 -6029 6031 0
-5795 -6029 6031 0
5605 5795 -6031 0
5605 6029 -6031 0
5795 6029 -6031 0
-5606 -5796 -6032 0
5606 5796 -6032 0
-5606 5796 6032 0
5606 -5796 6032 0
-6032 -6031 -5984 0
6032 6031 -5984 0
-6032 6031 5984 0
6032 -6031 5984 0
-5606 -5796 6033 0
-5606 -6031 6033 0
-5796 -6031 6033 0
5606 5796 -6033 0
5606 6031 -6033 0
5796 6031 -6033 0
-5607 -5797 -6034 0
5607 5797 -6034 0
-5607 5797 6034 0
5607 -5797 6034 0
-6034 -6033 -5985 0
6034 6033 -5985 0
-6034 6033 5985 0
6034 -6033 5985 0
-5607 -5797 6035 0
-5607 -6033 6035 0
-5797 -6033 6035 0
5607 5797 -6035 0
5607 6033 -6035 0
5797 6033 -6035 0
-5608 -5798 -6036 0
5608 5798 -6036 0
-5608 5798 6036 0
5608 -5798 6036 0
-6036 -6035 -5986 0
6036 6035 -5986 0
-6036 6035 5986 0
6036 -6035 5986 0
-5608 -5798 6037 0
-5608 -6035 6037 0
-5798 -6035 6037 0
5608 5798 -6037 0
5608 6035 -6037 0
5798 6035 -6037 0
-5609 -5799 -6038 0
5609 5799 -6038 0
-5609 5799 6038 0
5609 -5799 6038 0
-6038 -6037 -5987 0
6038 6037 -5987 0
-6038 6037 5987 0
6038 -6037 5987 0
-5609 -5799 6039 0
-5609 -6037 6039 0
-5799 -6037 6039 0
5609 5799 -6039 0
5609 6037 -6039 0
5799 6037 -6039 0
-5610 -5800 -6040 0
5610 5800 -6040 0
-5610 5800 6040 0
5610 -5800 6040 0
-6040 -6039 -5988 0
6040 6039 -5988 0
-6040 6039 5988 0
6040 -6039 5988 0
-5610 -5800 6041 0
-5610 -6039 6041 0
-5800 -6039 6041 0
5610 5800 -6041 0
5610 6039 -6041 0
5800 6039 -6041 0
-5611 -5801 -6042 0
5611 5801 -6042 0
-5611 5801 6042 0
5611 -5801 6042 0
-6042 -6041 -5989 0
6042 6041 -5989 0
-6042 6041 5989 0
6042 -6041 5989 0
-5611 -5801 6043 0
-5611 -6041 6043 0
-5801 -6041 6043 0
5611 5801 -6043 0
5611 6041 -6043 0
5801 6041 -6043 0
-5612 -5802 -6044 0
5612 5802 -6044 0
-5612 5802 6044 0
5612 -5802 6044 0
-6044 -6043 -5990 0
6044 6043 -5990 0
-6044 6043 5990 0
6044 -6043 5990 0
-5612 -5802 6045 0
-5612 -6043 6045 0
-5802 -6043 6045 0
5612 5802 -6045 0
5612 6043 -6045 0
5802 6043 -6045 0
-5613 -5803 -6046 0
5613 5803 -6046 0
-5613 5803 6046 0
5613 -5803 6046 0
-6046 -6045 -5991 0
6046 6045 -5991 0
-6046 6045 5991 0
6046 -6045 5991 0
-5613 -5803 6047 0
-5613 -6045 6047 0
-5803 -6045 6047 0
5613 5803 -6047 0
5613 6045 -6047 0
5803 6045 -6047 0
-5614 -5804 -6048 0
5614 5804 -6048 0
-5614 5804 6048 0
5614 -5804 6048 0
-6048 -6047 -5992 0
6048 6047 -5992 0
-6048 6047 5992 0
6048 -6047 5992 0
-5614 -5804 6049 0
-5614 -6047 6049 0
-5804 -6047 6049 0
5614 5804 -6049 0
5614 6047 -6049 0
5804 6047 -6049 0
-5615 -5805 -6050 0
5615 5805 -6050 0
-5615 5805 6050 0
5615 -5805 6050 0
-6050 -6049 -5993 0
6050 6049 -5993 0
-6050 6049 5993 0
6050 -6049 5993 0
-5615 -5805 6051 0
-5615 -6049 6051 0
-5805 -6049 6051 0
5615 5805 -6051 0
5615 6049 -6051 0
5805 6049 -6051 0
-5616 -5806 -6052 0
5616 5806 -6052 0
-5616 5806 6052 0
5616 -5806 6052 0
-6052 -6051 -5994 0
6052 6051 -5994 0
-6052 6051 5994 0
6052 -6051 5994 0
-5616 -5806 6053 0
-5616 -6051 6053 0
-5806 -6051 6053 0
5616 5806 -6053 0
5616 6051 -6053 0
5806 6051 -6053 0
-5617 -5807 -6054 0
5617 5807 -6054 0
-5617 5807 6054 0
5617 -5807 6054 0
-6054 -6053 -5995 0
6054 6053 -5995 0
-6054 6053 5995 0
6054 -6053 5995 0
-5617 -5807 6055 0
-5617 -6053 6055 0
-5807 -6053 6055 0
5617 5807 -6055 0
5617 6053 -6055 0
5807 6053 -6055 0
-5618 -5808 -6056 0
5618 5808 -6056 0
-5618 5808 6056 0
5618 -5808 6056 0
-6056 -6055 -5996 0
6056 6055 -5996 0
-6056 6055 5996 0
6056 -6055 5996 0
-5618 -5808 6057 0
-5618 -6055 6057 0
-5808 -6055 6057 0
5618 5808 -6057 0
5618 6055 -6057 0
5808 6055 -6057 0
-5619 -5809 -6058 0
5619 5809 -6058 0
-5619 5809 6058 0
5619 -5809 6058 0
-6058 -6057 -5997 0
6058 6057 -5997 0
-6058 6057 5997 0
6058 -6057 5997 0
-5619 -5809 6059 0
-5619 -6057 6059 0
-5809 -6057 6059 0
5619 5809 -6059 0
5619 6057 -6059 0
5809 6057 -6059 0
-5620 -5810 -6060 0
5620 5810 -6060 0
-5620 5810 6060 0
5620 -5810 6060 0
-6060 -6059 -5998 0
6060 6059 -5998 0
-6060 6059 5998 0
6060 -6059 5998 0
-5879 -5884 -6093 0
5879 5884 -6093 0
-5879 5884 6093 0
5879 -5884 6093 0
-6093 -5898 -6061 0
6093 5898 -6061 0
-6093 5898 6061 0
6093 -5898 6061 0
-5880 -5885 -6094 0
5880 5885 -6094 0
-5880 5885 6094 0
5880 -5885 6094 0
-6094 -5899 -6062 0
6094 5899 -6062 0
-6094 5899 6062 0
6094 -5899 6062 0
-5881 -5886 -6095 0
5881 5886 -6095 0
-5881 5886 6095 0
5881 -5886 6095 0
-6095 -5900 -6063 0
6095 5900 -6063 0
-6095 5900 6063 0
6095 -5900 6063 0
-5882 -5887 -6096 0
5882 5887 -6096 0
-5882 5887 6096 0
5882 -5887 6096 0
-6096 -5901 -6064 0
6096 5901 -6064 0
-6096 5901 6064 0
6096 -5901 6064 0
-5883 -5888 -6097 0
5883 5888 -6097 0
-5883 5888 6097 0
5883 -5888 6097 0
-6097 -5902 -6065 0
6097 5902 -6065 0
-6097 5902 6065 0
6097 -5902 6065 0
-5884 -5889 -6098 0
5884 5889 -6098 0
-5884 5889 6098 0
5884 -5889 6098 0
-6098 -5903 -6066 0
6098 5903 -6066 0
-6098 5903 6066 0
6098 -5903 6066 0
-5885 -5890 -6099 0
5885 5890 -6099 0
-5885 5890 6099 0
5885 -5890 6099 0
-6099 -5904 -6067 0
6099 5904 -6067 0
-6099 5904 6067 0
6099 -5904 6067 0
-5886 -5891 -6100 0
5886 5891 -6100 0
-5886 5891 6100 0
5886 -5891 6100 0
-6100 -5873 -6068 0
6100 5873 -6068 0
-6100 5873 6068 0
6100 -5873 6068 0
-5887 -5892 -6101 0
5887 5892 -6101 0
-5887 5892 6101 0
5887 -5892 6101 0
-6101 -5874 -6069 0
6101 5874 -6069 0
-6101 5874 6069 0
6101 -5874 6069 0
-5888 -5893 -6102 0
5888 5893 -6102 0
-5888 5893 6102 0
5888 -5893 6102 0
-6102 -5875 -6070 0
6102 5875 -6070 0
-6102 5875 6070 0
6102 -5875 6070 0
-5889 -5894 -6103 0
5889 5894 -6103 0
-5889 5894 6103 0
5889 -5894 6103 0
-6103 -5876 -6071 0
6103 5876 -6071 0
-6103 5876 6071 0
6103 -5876 6071 0
-5890 -5895 -6104 0
5890 5895 -6104 0
-5890 5895 6104 0
5890 -5895 6104 0
-6104 -5877 -6072 0
6104 5877 -6072 0
-6104 5877 6072 0
6104 -5877 6072 0
-5891 -5896 -6105 0
5891 5896 -6105 0
-5891 5896 6105 0
5891 -5896 6105 0
-6105 -5878 -6073 0
6105 5878 -6073 0
-6105 5878 6073 0
6105 -5878 6073 0
-5892 -5897 -6106 0
5892 5897 -6106 0
-5892 5897 6106 0
5892 -5897 6106 0
-6106 -5879 -6074 0
6106 5879 -6074 0
-6106 5879 6074 0
6106 -5879 6074 0
-5893 -5898 -6107 0
5893 5898 -6107 0
-5893 5898 6107 0
5893 -5898 6107 0
-6107 -5880 -6075 0
6107 5880 -6075 0
-6107 5880 6075 0
6107 -5880 6075 0
-5894 -5899 -6108 0
5894 5899 -6108 0
-5894 5899 6108 0
5894 -5899 6108 0
-6108 -5881 -6076 0
6108 5881 -6076 0
-6108 5881 6076 0
6108 -5881 6076 0
-5895 -5900 -6109 0
5895 5900 -6109 0
-5895 5900 6109 0
5895 -5900 6109 0
-6109 -5882 -6077 0
6109 5882 -6077 0
-6109 5882 6077 0
6109 -5882 6077 0
-5896 -5901 -6110 0
5896 5901 -6110 0
-5896 5901 6110 0
5896 -5901 6110 0
-6110 -5883 -6078 0
6110 5883 -6078 0
-6110 5883 6078 0
6110 -5883 6078 0
-5897 -5902 -6111 0
5897 5902 -6111 0
-5897 5902 6111 0
5897 -5902 6111 0
-6111 -5884 -6079 0
6111 5884 -6079 0
-6111 5884 6079 0
6111 -5884 6079 0
-5898 -5903 -6112 0
5898 5903 -6112 0
-5898 5903 6112 0
5898 -5903 6112 0
-6112 -5885 -6080 0
6112 5885 -6080 0
-6112 5885 6080 0
6112 -5885 6080 0
-5899 -5904 -6113 0
5899 5904 -6113 0
-5899 5904 6113 0
5899 -5904 6113 0
-6113 -5886 -6081 0
6113 5886 -6081 0
-6113 5886 6081 0
6113 -5886 6081 0
-5900 -5873 -6114 0
5900 5873 -6114 0
-5900 5873 6114 0
5900 -5873 6114 0
-6114 -5887 -6082 0
6114 5887 -6082 0
-6114 5887 6082 0
6114 -5887 6082 0
-5901 -5874 -6115 0
5901 5874 -6115 0
-5901 5874 6115 0
5901 -5874 6115 0
-6115 -5888 -6083 0
6115 5888 -6083 0
-6115 5888 6083 0
6115 -5888 6083 0
-5902 -5875 -6116 0
5902 5875 -6116 0
-5902 5875 6116 0
5902 -5875 6116 0
-6116 -5889 -6084 0
6116 5889 -6084 0
-6116 5889 6084 0
6116 -5889 6084 0
-5903 -5876 -6117 0
5903 5876 -6117 0
-5903 5876 6117 0
5903 -5876 6117 0
-6117 -5890 -6085 0
6117 5890 -6085 0
-6117 5890 6085 0
6117 -5890 6085 0
-5904 -5877 -6118 0
5904 5877 -6118 0
-5904 5877 6118 0
5904 -5877 6118 0
-6118 -5891 -6086 0
6118 5891 -6086 0
-6118 5891 6086 0
6118 -5891 6086 0
-5873 -5878 -6119 0
5873 5878 -6119 0
-5873 5878 6119 0
5873 -5878 6119 0
-6119 -5892 -6087 0
6119 5892 -6087 0
-6119 5892 6087 0
6119 -5892 6087 0
-5874 -5879 -6120 0
5874 5879 -6120 0
-5874 5879 6120 0
5874 -5879 6120 0
-6120 -5893 -6088 0
6120 5893 -6088 0
-6120 5893 6088 0
6120 -5893 6088 0
-5875 -5880 -6121 0
5875 5880 -6121 0
-5875 5880 6121 0
5875 -5880 6121 0
-6121 -5894 -6089 0
6121 5894 -6089 0
-6121 5894 6089 0
6121 -5894 6089 0
-5876 -5881 -6122 0
5876 5881 -6122 0
-5876 5881 6122 0
5876 -5881 6122 0
-6122 -5895 -6090 0
6122 5895 -6090 0
-6122 5895 6090 0
6122 -5895 6090 0
-5877 -5882 -6123 0
5877 5882 -6123 0
-5877 5882 6123 0
5877 -5882 6123 0
-6123 -5896 -6091 0
6123 5896 -6091 0
-6123 5896 6091 0
6123 -5896 6091 0
-5878 -5883 -6124 0
5878 5883 -6124 0
-5878 5883 6124 0
5878 -5883 6124 0
-6124 -5897 -6092 0
6124 5897 -6092 0
-6124 5897 6092 0
6124 -5897 6092 0
-5873 -4991 6125 0
-5873 4991 -6125 0
5873 -4109 6125 0
5873 4109 -6125 0
-5874 -4992 6126 0
-5874 4992 -6126 0
5874 -4110 6126 0
5874 4110 -6126 0
-5875 -4993 6127 0
-5875 4993 -6127 0
5875 -4111 6127 0
5875 4111 -6127 0
-5876 -4994 6128 0
-5876 4994 -6128 0
5876 -4112 6128 0
5876 4112 -6128 0
-5877 -4995 6129 0
-5877 4995 -6129 0
5877 -4113 6129 0
5877 4113 -6129 0
-5878 -4996 6130 0
-5878 4996 -6130 0
5878 -4114 6130 0
5878 4114 -6130 0
-5879 -4997 6131 0
-5879 4997 -6131 0
5879 -4115 6131 0
5879 4115 -6131 0
-5880 -4998 6132 0
-5880 4998 -6132 0
5880 -4116 6132 0
5880 4116 -6132 0
-5881 -4999 6133 0
-5881 4999 -6133 0
5881 -4117 6133 0
5881 4117 -6133 0
-5882 -5000 6134 0
-5882 5000 -6134 0
5882 -4118 6134 0
5882 4118 -6134 0
-5883 -5001 6135 0
-5883 5001 -6135 0
5883 -4119 6135 0
5883 4119 -6135 0
-5884 -5002 6136 0
-5884 5002 -6136 0
5884 -4120 6136 0
5884 4120 -6136 0
-5885 -5003 6137 0
-5885 5003 -6137 0
5885 -4121 6137 0
5885 4121 -6137 0
-5886 -5004 6138 0
-5886 5004 -6138 0
5886 -4122 6138 0
5886 4122 -6138 0
-5887 -5005 6139 0
-5887 5005 -6139 0
5887 -4123 6139 0
5887 4123 -6139 0
-5888 -5006 6140 0
-5888 5006 -6140 0
5888 -4124 6140 0
5888 4124 -6140 0
-5889 -5007 6141 0
-5889 5007 -6141 0
5889 -4125 6141 0
5889 4125 -6141 0
-5890 -5008 6142 0
-5890 5008 -6142 0
5890 -4126 6142 0
5890 4126 -6142 0
-5891 -5009 6143 0
-5891 5009 -6143 0
5891 -4127 6143 0
5891 4127 -6143 0
-5892 -5010 6144 0
-5892 5010 -6144 0
5892 -4128 6144 0
5892 4128 -6144 0
-5893 -5011 6145 0
-5893 5011 -6145 0
5893 -4129 6145 0
5893 4129 -6145 0
-5894 -5012 6146 0
-5894 5012 -6146 0
5894 -4130 6146 0
5894 4130 -6146 0
-5895 -5013 6147 0
-5895 5013 -6147 0
5895 -4131 6147 0
5895 4131 -6147 0
-5896 -5014 6148 0
-5896 5014 -6148 0
5896 -4132 6148 0
5896 4132 -6148 0
-5897 -5015 6149 0
-5897 5015 -6149 0
5897 -4133 6149 0
5897 4133 -6149 0
-5898 -5016 6150 0
-5898 5016 -6150 0
5898 -4134 6150 0
5898 4134 -6150 0
-5899 -5017 6151 0
-5899 5017 -6151 0
5899 -4135 6151 0
5899 4135 -6151 0
-5900 -5018 6152 0
-5900 5018 -6152 0
5900 -4136 6152 0
5900 4136 -6152 0
-5901 -5019 6153 0
-5901 5019 -6153 0
5901 -4137 6153 0
5901 4137 -6153 0
-5902 -5020 6154 0
-5902 5020 -6154 0
5902 -4138 6154 0
5902 4138 -6154 0
-5903 -5021 6155 0
-5903 5021 -6155 0
5903 -4139 6155 0
5903 4139 -6155 0
-5904 -5022 6156 0
-5904 5022 -6156 0
5904 -4140 6156 0
5904 4140 -6156 0
-3227 -6061 -6157 0
3227 6061 -6157 0
-3227 6061 6157 0
3227 -6061 6157 0
-3227 -6061 6189 0
3227 -6189 0
6061 -6189 0
-3228 -6062 -6190 0
3228 6062 -6190 0
-3228 6062 6190 0
3228 -6062 6190 0
-6190 -6189 -6158 0
6190 6189 -6158 0
-6190 6189 6158 0
6190 -6189 6158 0
-3228 -6062 6191 0
-3228 -6189 6191 0
-6062 -6189 6191 0
3228 6062 -6191 0
3228 6189 -6191 0
6062 6189 -6191 0
-3229 -6063 -6192 0
3229 6063 -6192 0
-3229 6063 6192 0
3229 -6063 6192 0
-6192 -6191 -6159 0
6192 6191 -6159 0
-6192 6191 6159 0
6192 -6191 6159 0
-3229 -6063 6193 0
-3229 -6191 6193 0
-6063 -6191 6193 0
3229 6063 -6193 0
3229 6191 -6193 0
6063 6191 -6193 0
-3230 -6064 -6194 0
3230 6064 -6194 0
-3230 6064 6194 0
3230 -6064 6194 0
-6194 -6193 -6160 0
6194 6193 -6160 0
-6194 6193 6160 0
6194 -6193 6160 0
-3230 -6064 6195 0
-3230 -6193 6195 0
-6064 -6193 6195 0
3230 6064 -6195 0
3230 6193 -6195 0
6064 6193 -6195 0
-3231 -6065 -6196 0
3231 6065 -6196 0
-3231 6065 6196 0
3231 -6065 6196 0
-6196 -6195 -6161 0
6196 6195 -6161 0
-6196 6195 6161 0
6196 -6195 6161 0
-3231 -6065 6197 0
-3231 -6195 6197 0
-6065 -6195 6197 0
3231 6065 -6197 0
3231 6195 -6197 0
6065 6195 -6197 0
-3232 -6066 -6198 0
3232 6066 -6198 0
-3232 6066 6198 0
3232 -6066 6198 0
-6198 -6197 -6162 0
6198 6197 -6162 0
-6198 6197 6162 0
6198 -6197 6162 0
-3232 -6066 6199 0
-3232 -6197 6199 0
-6066 -6197 6199 0
3232 6066 -6199 0
3232 6197 -6199 0
6066 6197 -6199 0
-3233 -6067 -6200 0
3233 6067 -6200 0
-3233 6067 6200 0
3233 -6067 6200 0
-6200 -6199 -6163 0
6200 6199 -6163 0
-6200 6199 6163 0
6200 -6199 6163 0
-3233 -6067 6201 0
-3233 -6199 6201 0
-6067 -6199 6201 0
3233 6067 -6201 0
3233 6199 -6201 0
6067 6199 -6201 0
-3234 -6068 -6202 0
3234 6068 -6202 0
-3234 6068 6202 0
3234 -6068 6202 0
-6202 -6201 -6164 0
6202 6201 -6164 0
-6202 6201 6164 0
6202 -6201 6164 0
-3234 -6068 6203 0
-3234 -6201 6203 0
-6068 -6201 6203 0
3234 6068 -6203 0
3234 6201 -6203 0
6068 6201 -6203 0
-3235 -6069 -6204 0
3235 6069 -6204 0
-3235 6069 6204 0
3235 -6069 6204 0
-6204 -6203 -6165 0
6204 6203 -6165 0
-6204 6203 6165 0
6204 -6203 6165 0
-3235 -6069 6205 0
-3235 -6203 6205 0
-6069 -6203 6205 0
3235 6069 -6205 0
3235 6203 -6205 0
6069 6203 -6205 0
-3236 -6070 -6206 0
3236 6070 -6206 0
-3236 6070 6206 0
3236 -6070 6206 0
-6206 -6205 -6166 0
6206 6205 -6166 0
-6206 6205 6166 0
6206 -6205 6166 0
-3236 -6070 6207 0
-3236 -6205 6207 0
-6070 -6205 6207 0
3236 6070 -6207 0
3236 6205 -6207 0
6070 6205 -6207 0
-3237 -6071 -6208 0
3237 6071 -6208 0
-3237 6071 6208 0
3237 -6071 6208 0
-6208 -6207 -6167 0
6208 6207 -6167 0
-6208 6207 6167 0
6208 -6207 6167 0
-3237 -6071 6209 0
-3237 -6207 6209 0
-6071 -6207 6209 0
3237 6071 -6209 0
3237 6207 -6209 0
6071 6207 -6209 0
-3238 -6072 -6210 0
3238 6072 -6210 0
-3238 6072 6210 0
3238 -6072 6210 0
-6210 -6209 -6168 0
6210 6209 -6168 0
-6210 6209 6168 0
6210 -6209 6168 0
-3238 -6072 6211 0
-3238 -6209 6211 0
-6072 -6209 6211 0
3238 6072 -6211 0
3238 6209 -6211 0
6072 6209 -6211 0
-3239 -6073 -6212 0
3239 6073 -6212 0
-3239 6073 6212 0
3239 -6073 6212 0
-6212 -6211 -6169 0
6212 6211 -6169 0
-6212 6211 6169 0
6212 -6211 6169 0
-3239 -6073 6213 0
-3239 -6211 6213 0
-6073 -6211 6213 0
3239 6073 -6213 0
3239 6211 -6213 0
6073 6211 -6213 0
-3240 -6074 -6214 0
3240 6074 -6214 0
-3240 6074 6214 0
3240 -6074 6214 0
-6214 -6213 -6170 0
6214 6213 -6170 0
-6214 6213 6170 0
6214 -6213 6170 0
-3240 -6074 6215 0
-3240 -6213 6215 0
-6074 -6213 6215 0
3240 6074 -6215 0
3240 6213 -6215 0
6074 6213 -6215 0
-3241 -6075 -6216 0
3241 6075 -6216 0
-3241 6075 6216 0
3241 -6075 6216 0
-6216 -6215 -6171 0
6216 6215 -6171 0
-6216 6215 6171 0
6216 -6215 6171 0
-3241 -6075 6217 0
-3241 -6215 6217 0
-6075 -6215 6217 0
3241 6075 -6217 0
3241 6215 -6217 0
6075 6215 -6217 0
-3242 -6076 -6218 0
3242 6076 -6218 0
-3242 6076 6218 0
3242 -6076 6218 0
-6218 -6217 -6172 0
6218 6217 -6172 0
-6218 6217 6172 0
6218 -6217 6172 0
-3242 -6076 6219 0
-3242 -6217 6219 0
-6076 -6217 6219 0
3242 6076 -6219 0
3242 6217 -6219 0
6076 6217 -6219 0
-3243 -6077 -6220 0
3243 6077 -6220 0
-3243 6077 6220 0
3243 -6077 6220 0
-6220 -6219 -6173 0
6220 6219 -6173 0
-6220 6219 6173 0
6220 -6219 6173 0
-3243 -6077 6221 0
-3243 -6219 6221 0
-6077 -6219 6221 0
3243 6077 -6221 0
3243 6219 -6221 0
6077 6219 -6221 0
-3244 -6078 -6222 0
3244 6078 -6222 0
-3244 6078 6222 0
3244 -6078 6222 0
-6222 -6221 -6174 0
6222 6221 -6174 0
-6222 6221 6174 0
6222 -6221 6174 0
-3244 -6078 6223 0
-3244 -6221 6223 0
-6078 -6221 6223 0
3244 6078 -6223 0
3244 6221 -6223 0
6078 6221 -6223 0
-3245 -6079 -6224 0
3245 6079 -6224 0
-3245 6079 6224 0
3245 -6079 6224 0
-6224 -6223 -6175 0
6224 6223 -6175 0
-6224 6223 6175 0
6224 -6223 6175 0
-3245 -6079 6225 0
-3245 -6223 6225 0
-6079 -6223 6225 0
3245 6079 -6225 0
3245 6223 -6225 0
6079 6223 -6225 0
-3246 -6080 -6226 0
3246 6080 -6226 0
-3246 6080 6226 0
3246 -6080 6226 0
-6226 -6225 -6176 0
6226 6225 -6176 0
-6226 6225 6176 0
6226 -6225 6176 0
-3246 -6080 6227 0
-3246 -6225 6227 0
-6080 -6225 6227 0
3246 6080 -6227 0
3246 6225 -6227 0
6080 6225 -6227 0
-3247 -6081 -6228 0
3247 6081 -6228 0
-3247 6081 6228 0
3247 -6081 6228 0
-6228 -6227 -6177 0
6228 6227 -6177 0
-6228 6227 6177 0
6228 -6227 6177 0
-3247 -6081 6229 0
-3247 -6227 6229 0
-6081 -6227 6229 0
3247 6081 -6229 0
3247 6227 -6229 0
6081 6227 -6229 0
-3248 -6082 -6230 0
3248 6082 -6230 0
-3248 6082 6230 0
3248 -6082 6230 0
-6230 -6229 -6178 0
6230 6229 -6178 0
-6230 6229 6178 0
6230 -6229 6178 0
-3248 -6082 6231 0
-3248 -6229 6231 0
-6082 -6229 6231 0
3248 6082 -6231 0
3248 6229 -6231 0
6082 6229 -6231 0
-3249 -6083 -6232 0
3249 6083 -6232 0
-3249 6083 6232 0
3249 -6083 6232 0
-6232 -6231 -6179 0
6232 6231 -6179 0
-6232 6231 6179 0
6232 -6231 6179 0
-3249 -6083 6233 0
-3249 -6231 6233 0
-6083 -6231 6233 0
3249 6083 -6233 0
3249 6231 -6233 0
6083 6231 -6233 0
-3250 -6084 -6234 0
3250 6084 -6234 0
-3250 6084 6234 0
3250 -6084 6234 0
-6234 -6233 -6180 0
6234 6233 -6180 0
-6234 6233 6180 0
6234 -6233 6180 0
-3250 -6084 6235 0
-3250 -6233 6235 0
-6084 -6233 6235 0
3250 6084 -6235 0
3250 6233 -6235 0
6084 6233 -6235 0
-3251 -6085 -6236 0
3251 6085 -6236 0
-3251 6085 6236 0
3251 -6085 6236 0
-6236 -6235 -6181 0
6236 6235 -6181 0
-6236 6235 6181 0
6236 -6235 6181 0
-3251 -6085 6237 0
-3251 -6235 6237 0
-6085 -6235 6237 0
3251 6085 -6237 0
3251 6235 -6237 0
6085 6235 -6237 0
-3252 -6086 -6238 0
3252 6086 -6238 0
-3252 6086 6238 0
3252 -6086 6238 0
-6238 -6237 -6182 0
6238 6237 -6182 0
-6238 6237 6182 0
6238 -6237 6182 0
-3252 -6086 6239 0
-3252 -6237 6239 0
-6086 -6237 6239 0
3252 6086 -6239 0
3252 6237 -6239 0
6086 6237 -6239 0
-3253 -6087 -6240 0
3253 6087 -6240 0
-3253 6087 6240 0
3253 -6087 6240 0
-6240 -6239 -6183 0
6240 6239 -6183 0
-6240 6239 6183 0
6240 -6239 6183 0
-3253 -6087 6241 0
-3253 -6239 6241 0
-6087 -6239 6241 0
3253 6087 -6241 0
3253 6239 -6241 0
6087 6239 -6241 0
-3254 -6088 -6242 0
3254 6088 -6242 0
-3254 6088 6242 0
3254 -6088 6242 0
-6242 -6241 -6184 0
6242 6241 -6184 0
-6242 6241 6184 0
6242 -6241 6184 0
-3254 -6088 6243 0
-3254 -6241 6243 0
-6088 -6241 6243 0
3254 6088 -6243 0
3254 6241 -6243 0
6088 6241 -6243 0
-3255 -6089 -6244 0
3255 6089 -6244 0
-3255 6089 6244 0
3255 -6089 6244 0
-6244 -6243 -6185 0
6244 6243 -6185 0
-6244 6243 6185 0
6244 -6243 6185 0
-3255 -6089 6245 0
-3255 -6243 6245 0
-6089 -6243 6245 0
3255 6089 -6245 0
3255 6243 -6245 0
6089 6243 -6245 0
-3256 -6090 -6246 0
3256 6090 -6246 0
-3256 6090 6246 0
3256 -6090 6246 0
-6246 -6245 -6186 0
6246 6245 -6186 0
-6246 6245 6186 0
6246 -6245 6186 0
-3256 -6090 6247 0
-3256 -6245 6247 0
-6090 -6245 6247 0
3256 6090 -6247 0
3256 6245 -6247 0
6090 6245 -6247 0
-3257 -6091 -6248 0
3257 6091 -6248 0
-3257 6091 6248 0
3257 -6091 6248 0
-6248 -6247 -6187 0
6248 6247 -6187 0
-6248 6247 6187 0
6248 -6247 6187 0
-3257 -6091 6249 0
-3257 -6247 6249 0
-6091 -6247 6249 0
3257 6091 -6249 0
3257 6247 -6249 0
6091 6247 -6249 0
-3258 -6092 -6250 0
3258 6092 -6250 0
-3258 6092 6250 0
3258 -6092 6250 0
-6250 -6249 -6188 0
6250 6249 -6188 0
-6250 6249 6188 0
6250 -6249 6188 0
-6125 -193 -6251 0
6125 193 -6251 0
-6125 193 6251 0
6125 -193 6251 0
-6125 -193 6283 0
6125 -6283 0
193 -6283 0
-6126 -194 -6284 0
6126 194 -6284 0
-6126 194 6284 0
6126 -194 6284 0
-6284 -6283 -6252 0
6284 6283 -6252 0
-6284 6283 6252 0
6284 -6283 6252 0
-6126 -194 6285 0
-6126 -6283 6285 0
-194 -6283 6285 0
6126 194 -6285 0
6126 6283 -6285 0
194 6283 -6285 0
-6127 -195 -6286 0
6127 195 -6286 0
-6127 195 6286 0
6127 -195 6286 0
-6286 -6285 -6253 0
6286 6285 -6253 0
-6286 6285 6253 0
6286 -6285 6253 0
-6127 -195 6287 0
-6127 -6285 6287 0
-195 -6285 6287 0
6127 195 -6287 0
6127 6285 -6287 0
195 6285 -6287 0
-6128 -196 -6288 0
6128 196 -6288 0
-6128 196 6288 0
6128 -196 6288 0
-6288 -6287 -6254 0
6288 6287 -6254 0
-6288 6287 6254 0
6288 -6287 6254 0
-6128 -196 6289 0
-6128 -6287 6289 0
-196 -6287 6289 0
6128 196 -6289 0
6128 6287 -6289 0
196 6287 -6289 0
-6129 -197 -6290 0
6129 197 -6290 0
-6129 197 6290 0
6129 -197 6290 0
-6290 -6289 -6255 0
6290 6289 -6255 0
-6290 6289 6255 0
6290 -6289 6255 0
-6129 -197 6291 0
-6129 -6289 6291 0
-197 -6289 6291 0
6129 197 -6291 0
6129 6289 -6291 0
197 6289 -6291 0
-6130 -198 -6292 0
6130 198 -6292 0
-6130 198 6292 0
6130 -198 6292 0
-6292 -6291 -6256 0
6292 6291 -6256 0
-6292 6291 6256 0
6292 -6291 6256 0
-6130 -198 6293 0
-6130 -6291 6293 0
-198 -6291 6293 0
6130 198 -6293 0
6130 6291 -6293 0
198 6291 -6293 0
-6131 -199 -6294 0
6131 199 -6294 0
-6131 199 6294 0
6131 -199 6294 0
-6294 -6293 -6257 0
6294 6293 -6257 0
-6294 6293 6257 0
6294 -6293 6257 0
-6131 -199 6295 0
-6131 -6293 6295 0
-199 -6293 6295 0
6131 199 -6295 0
6131 6293 -6295 0
199 6293 -6295 0
-6132 -200 -6296 0
6132 200 -6296 0
-6132 200 6296 0
6132 -200 6296 0
-6296 -6295 -6258 0
6296 6295 -6258 0
-6296 6295 6258 0
6296 -6295 6258 0
-6132 -200 6297 0
-6132 -6295 6297 0
-200 -6295 6297 0
6132 200 -6297 0
6132 6295 -6297 0
200 6295 -6297 0
-6133 -201 -6298 0
6133 201 -6298 0
-6133 201 6298 0
6133 -201 6298 0
-6298 -6297 -6259 0
6298 6297 -6259 0
-6298 6297 6259 0
6298 -6297 6259 0
-6133 -201 6299 0
-6133 -6297 6299 0
-201 -6297 6299 0
6133 201 -6299 0
6133 6297 -6299 0
201 6297 -6299 0
-6134 -202 -6300 0
6134 202 -6300 0
-6134 202 6300 0
6134 -202 6300 0
-6300 -6299 -6260 0
6300 6299 -6260 0
-6300 6299 6260 0
6300 -6299 6260 0
-6134 -202 6301 0
-6134 -6299 6301 0
-202 -6299 6301 0
6134 202 -6301 0
6134 6299 -6301 0
202 6299 -6301 0
-6135 -203 -6302 0
6135 203 -6302 0
-6135 203 6302 0
6135 -203 6302 0
-6302 -6301 -6261 0
6302 6301 -6261 0
-6302 6301 6261 0
6302 -6301 6261 0
-6135 -203 6303 0
-6135 -6301 6303 0
-203 -6301 6303 0
6135 203 -6303 0
6135 6301 -6303 0
203 6301 -6303 0
-6136 -204 -6304 0
6136 204 -6304 0
-6136 204 6304 0
6136 -204 6304 0
-6304 -6303 -6262 0
6304 6303 -6262 0
-6304 6303 6262 0
6304 -6303 6262 0
-6136 -204 6305 0
-6136 -6303 6305 0
-204 -6303 6305 0
6136 204 -6305 0
6136 6303 -6305 0
204 6303 -6305 0
-6137 -205 -6306 0
6137 205 -6306 0
-6137 205 6306 0
6137 -205 6306 0
-6306 -6305 -6263 0
6306 6305 -6263 0
-6306 6305 6263 0
6306 -6305 6263 0
-6137 -205 6307 0
-6137 -6305 6307 0
-205 -6305 6307 0
6137 205 -6307 0
6137 6305 -6307 0
205 6305 -6307 0
-6138 -206 -6308 0
6138 206 -6308 0
-6138 206 6308 0
6138 -206 6308 0
-6308 -6307 -6264 0
6308 6307 -6264 0
-6308 6307 6264 0
6308 -6307 6264 0
-6138 -206 6309 0
-6138 -6307 6309 0
-206 -6307 6309 0
6138 206 -6309 0
6138 6307 -6309 0
206 6307 -6309 0
-6139 -207 -6310 0
6139 207 -6310 0
-6139 207 6310 0
6139 -207 6310 0
-6310 -6309 -6265 0
6310 6309 -6265 0
-6310 6309 6265 0
6310 -6309 6265 0
-6139 -207 6311 0
-6139 -6309 6311 0
-207 -6309 6311 0
6139 207 -6311 0
6139 6309 -6311 0
207 6309 -6311 0
-6140 -208 -6312 0
6140 208 -6312 0
-6140 208 6312 0
6140 -208 6312 0
-6312 -6311 -6266 0
6312 6311 -6266 0
-6312 6311 6266 0
6312 -6311 6266 0
-6140 -208 6313 0
-6140 -6311 6313 0
-208 -6311 6313 0
6140 208 -6313 0
6140 6311 -6313 0
208 6311 -6313 0
-6141 -209 -6314 0
6141 209 -6314 0
-6141 209 6314 0
6141 -209 6314 0
-6314 -6313 -6267 0
6314 6313 -6267 0
-6314 6313 6267 0
6314 -6313 6267 0
-6141 -209 6315 0
-6141 -6313 6315 0
-209 -6313 6315 0
6141 209 -6315 0
6141 6313 -6315 0
209 6313 -6315 0
-6142 -210 -6316 0
6142 210 -6316 0
-6142 210 6316 0
6142 -210 6316 0
-6316 -6315 -6268 0
6316 6315 -6268 0
-6316 6315 6268 0
6316 -6315 6268 0
-6142 -210 6317 0
-6142 -6315 6317 0
-210 -6315 6317 0
6142 210 -6317 0
6142 6315 -6317 0
210 6315 -6317 0
-6143 -211 -6318 0
6143 211 -6318 0
-6143 211 6318 0
6143 -211 6318 0
-6318 -6317 -6269 0
6318 6317 -6269 0
-6318 6317 6269 0
6318 -6317 6269 0
-6143 -211 6319 0
-6143 -6317 6319 0
-211 -6317 6319 0
6143 211 -6319 0
6143 6317 -6319 0
211 6317 -6319 0
-6144 -212 -6320 0
6144 212 -6320 0
-6144 212 6320 0
6144 -212 6320 0
-6320 -6319 -6270 0
6320 6319 -6270 0
-6320 6319 6270 0
6320 -6319 6270 0
-6144 -212 6321 0
-6144 -6319 6321 0
-212 -6319 6321 0
6144 212 -6321 0
6144 6319 -6321 0
212 6319 -6321 0
-6145 -213 -6322 0
6145 213 -6322 0
-6145 213 6322 0
6145 -213 6322 0
-6322 -6321 -6271 0
6322 6321 -6271 0
-6322 6321 6271 0
6322 -6321 6271 0
-6145 -213 6323 0
-6145 -6321 6323 0
-213 -6321 6323 0
6145 213 -6323 0
6145 6321 -6323 0
213 6321 -6323 0
-6146 -214 -6324 0
6146 214 -6324 0
-6146 214 6324 0
6146 -214 6324 0
-6324 -6323 -6272 0
6324 6323 -6272 0
-6324 6323 6272 0
6324 -6323 6272 0
-6146 -214 6325 0
-6146 -6323 6325 0
-214 -6323 6325 0
6146 214 -6325 0
6146 6323 -6325 0
214 6323 -6325 0
-6147 -215 -6326 0
6147 215 -6326 0
-6147 215 6326 0
6147 -215 6326 0
-6326 -6325 -6273 0
6326 6325 -6273 0
-6326 6325 6273 0
6326 -6325 6273 0
-6147 -215 6327 0
-6147 -6325 6327 0
-215 -6325 6327 0
6147 215 -6327 0
6147 6325 -6327 0
215 6325 -6327 0
-6148 -216 -6328 0
6148 216 -6328 0
-6148 216 6328 0
6148 -216 6328 0
-6328 -6327 -6274 0
6328 6327 -6274 0
-6328 6327 6274 0
6328 -6327 6274 0
-6148 -216 6329 0
-6148 -6327 6329 0
-216 -6327 6329 0
6148 216 -6329 0
6148 6327 -6329 0
216 6327 -6329 0
-6149 -217 -6330 0
6149 217 -6330 0
-6149 217 6330 0
6149 -217 6330 0
-6330 -6329 -6275 0
6330 6329 -6275 0
-6330 6329 6275 0
6330 -6329 6275 0
-6149 -217 6331 0
-6149 -6329 6331 0
-217 -6329 6331 0
6149 217 -6331 0
6149 6329 -6331 0
217 6329 -6331 0
-6150 -218 -6332 0
6150 218 -6332 0
-6150 218 6332 0
6150 -218 6332 0
-6332 -6331 -6276 0
6332 6331 -6276 0
-6332 6331 6276 0
6332 -6331 6276 0
-6150 -218 6333 0
-6150 -6331 6333 0
-218 -6331 6333 0
6150 218 -6333 0
6150 6331 -6333 0
218 6331 -6333 0
-6151 -219 -6334 0
6151 219 -6334 0
-6151 219 6334 0
6151 -219 6334 0
-6334 -6333 -6277 0
6334 6333 -6277 0
-6334 6333 6277 0
6334 -6333 6277 0
-6151 -219 6335 0
-6151 -6333 6335 0
-219 -6333 6335 0
6151 219 -6335 0
6151 6333 -6335 0
219 6333 -6335 0
-6152 -220 -6336 0
6152 220 -6336 0
-6152 220 6336 0
6152 -220 6336 0
-6336 -6335 -6278 0
6336 6335 -6278 0
-6336 6335 6278 0
6336 -6335 6278 0
-6152 -220 6337 0
-6152 -6335 6337 0
-220 -6335 6337 0
6152 220 -6337 0
6152 6335 -6337 0
220 6335 -6337 0
-6153 -221 -6338 0
6153 221 -6338 0
-6153 221 6338 0
6153 -221 6338 0
-6338 -6337 -6279 0
6338 6337 -6279 0
-6338 6337 6279 0
6338 -6337 6279 0
-6153 -221 6339 0
-6153 -6337 6339 0
-221 -6337 6339 0
6153 221 -6339 0
6153 6337 -6339 0
221 6337 -6339 0
-6154 -222 -6340 0
6154 222 -6340 0
-6154 222 6340 0
6154 -222 6340 0
-6340 -6339 -6280 0
6340 6339 -6280 0
-6340 6339 6280 0
6340 -6339 6280 0
-6154 -222 6341 0
-6154 -6339 6341 0
-222 -6339 6341 0
6154 222 -6341 0
6154 6339 -6341 0
222 6339 -6341 0
-6155 -223 -6342 0
6155 223 -6342 0
-6155 223 6342 0
6155 -223 6342 0
-6342 -6341 -6281 0
6342 6341 -6281 0
-6342 6341 6281 0
6342 -6341 6281 0
-6155 -223 6343 0
-6155 -6341 6343 0
-223 -6341 6343 0
6155 223 -6343 0
6155 6341 -6343 0
223 6341 -6343 0
-6156 -224 -6344 0
6156 224 -6344 0
-6156 224 6344 0
6156 -224 6344 0
-6344 -6343 -6282 0
6344 6343 -6282 0
-6344 6343 6282 0
6344 -6343 6282 0
-6345 0
-6346 0
6347 0
-6348 0
-6349 0
6350 0
-6351 0
6352 0
-6353 0
6354 0
-6355 0
-6356 0
-6357 0
-6358 0
-6359 0
6360 0
6361 0
6362 0
6363 0
6364 0
6365 0
6366 0
-6367 0
-6368 0
-6369 0
6370 0
-6371 0
-6372 0
6373 0
-6374 0
-6375 0
6376 0
-6157 -6345 -6377 0
6157 6345 -6377 0
-6157 6345 6377 0
6157 -6345 6377 0
-6157 -6345 6409 0
6157 -6409 0
6345 -6409 0
-6158 -6346 -6410 0
6158 6346 -6410 0
-6158 6346 6410 0
6158 -6346 6410 0
-6410 -6409 -6378 0
6410 6409 -6378 0
-6410 6409 6378 0
6410 -6409 6378 0
-6158 -6346 6411 0
-6158 -6409 6411 0
-6346 -6409 6411 0
6158 6346 -6411 0
6158 6409 -6411 0
6346 6409 -6411 0
-6159 -6347 -6412 0
6159 6347 -6412 0
-6159 6347 6412 0
6159 -6347 6412 0
-6412 -6411 -6379 0
6412 6411 -6379 0
-6412 6411 6379 0
6412 -6411 6379 0
-6159 -6347 6413 0
-6159 -6411 6413 0
-6347 -6411 6413 0
6159 6347 -6413 0
6159 6411 -6413 0
6347 6411 -6413 0
-6160 -6348 -6414 0
6160 6348 -6414 0
-6160 6348 6414 0
6160 -6348 6414 0
-6414 -6413 -6380 0
6414 6413 -6380 0
-6414 6413 6380 0
6414 -6413 6380 0
-6160 -6348 6415 0
-6160 -6413 6415 0
-6348 -6413 6415 0
6160 6348 -6415 0
6160 6413 -6415 0
6348 6413 -6415 0
-6161 -6349 -6416 0
6161 6349 -6416 0
-6161 6349 6416 0
6161 -6349 6416 0
-6416 -6415 -6381 0
6416 6415 -6381 0
-6416 6415 6381 0
6416 -6415 6381 0
-6161 -6349 6417 0
-6161 -6415 6417 0
-6349 -6415 6417 0
6161 6349 -6417 0
6161 6415 -6417 0
6349 6415 -6417 0
-6162 -6350 -6418 0
6162 6350 -6418 0
-6162 6350 6418 0
6162 -6350 6418 0
-6418 -6417 -6382 0
6418 6417 -6382 0
-6418 6417 6382 0
6418 -6417 6382 0
-6162 -6350 6419 0
-6162 -6417 6419 0
-6350 -6417 6419 0
6162 6350 -6419 0
6162 6417 -6419 0
6350 6417 -6419 0
-6163 -6351 -6420 0
6163 6351 -6420 0
-6163 6351 6420 0
6163 -6351 6420 0
-6420 -6419 -6383 0
6420 6419 -6383 0
-6420 6419 6383 0
6420 -6419 6383 0
-6163 -6351 6421 0
-6163 -6419 6421 0
-6351 -6419 6421 0
6163 6351 -6421 0
6163 6419 -6421 0
6351 6419 -6421 0
-6164 -6352 -6422 0
6164 6352 -6422 0
-6164 6352 6422 0
6164 -6352 6422 0
-6422 -6421 -6384 0
6422 6421 -6384 0
-6422 6421 6384 0
6422 -6421 6384 0
-6164 -6352 6423 0
-6164 -6421 6423 0
-6352 -6421 6423 0
6164 6352 -6423 0
6164 6421 -6423 0
6352 6421 -6423 0
-6165 -6353 -6424 0
6165 6353 -6424 0
-6165 6353 6424 0
6165 -6353 6424 0
-6424 -6423 -6385 0
6424 6423 -6385 0
-6424 6423 6385 0
6424 -6423 6385 0
-6165 -6353 6425 0
-6165 -6423 6425 0
-6353 -6423 6425 0
6165 6353 -6425 0
6165 6423 -6425 0
6353 6423 -6425 0
-6166 -6354 -6426 0
6166 6354 -6426 0
-6166 6354 6426 0
6166 -6354 6426 0
-6426 -6425 -6386 0
6426 6425 -6386 0
-6426 6425 6386 0
6426 -6425 6386 0
-6166 -6354 6427 0
-6166 -6425 6427 0
-6354 -6425 6427 0
6166 6354 -6427 0
6166 6425 -6427 0
6354 6425 -6427 0
-6167 -6355 -6428 0
6167 6355 -6428 0
-6167 6355 6428 0
6167 -6355 6428 0
-6428 -6427 -6387 0
6428 6427 -6387 0
-6428 6427 6387 0
6428 -6427 6387 0
-6167 -6355 6429 0
-6167 -6427 6429 0
-6355 -6427 6429 0
6167 6355 -6429 0
6167 6427 -6429 0
6355 6427 -6429 0
-6168 -6356 -6430 0
6168 6356 -6430 0
-6168 6356 6430 0
6168 -6356 6430 0
-6430 -6429 -6388 0
6430 6429 -6388 0
-6430 6429 6388 0
6430 -6429 6388 0
-6168 -6356 6431 0
-6168 -6429 6431 0
-6356 -6429 6431 0
6168 6356 -6431 0
6168 6429 -6431 0
6356 6429 -6431 0
-6169 -6357 -6432 0
6169 6357 -6432 0
-6169 6357 6432 0
6169 -6357 6432 0
-6432 -6431 -6389 0
6432 6431 -6389 0
-6432 6431 6389 0
6432 -6431 6389 0
-6169 -6357 6433 0
-6169 -6431 6433 0
-6357 -6431 6433 0
6169 6357 -6433 0
6169 6431 -6433 0
6357 6431 -6433 0
-6170 -6358 -6434 0
6170 6358 -6434 0
-6170 6358 6434 0
6170 -6358 6434 0
-6434 -6433 -6390 0
6434 6433 -6390 0
-6434 6433 6390 0
6434 -6433 6390 0
-6170 -6358 6435 0
-6170 -6433 6435 0
-6358 -6433 6435 0
6170 6358 -6435 0
6170 6433 -6435 0
6358 6433 -6435 0
-6171 -6359 -6436 0
6171 6359 -6436 0
-6171 6359 6436 0
6171 -6359 6436 0
-6436 -6435 -6391 0
6436 6435 -6391 0
-6436 6435 6391 0
6436 -6435 6391 0
-6171 -6359 6437 0
-6171 -6435 6437 0
-6359 -6435 6437 0
6171 6359 -6437 0
6171 6435 -6437 0
6359 6435 -6437 0
-6172 -6360 -6438 0
6172 6360 -6438 0
-6172 6360 6438 0
6172 -6360 6438 0
-6438 -6437 -6392 0
6438 6437 -6392 0
-6438 6437 6392 0
6438 -6437 6392 0
-6172 -6360 6439 0
-6172 -6437 6439 0
-6360 -6437 6439 0
6172 6360 -6439 0
6172 6437 -6439 0
6360 6437 -6439 0
-6173 -6361 -6440 0
6173 6361 -6440 0
-6173 6361 6440 0
6173 -6361 6440 0
-6440 -6439 -6393 0
6440 6439 -6393 0
-6440 6439 6393 0
6440 -6439 6393 0
-6173 -6361 6441 0
-6173 -6439 6441 0
-6361 -6439 6441 0
6173 6361 -6441 0
6173 6439 -6441 0
6361 6439 -6441 0
-6174 -6362 -6442 0
6174 6362 -6442 0
-6174 6362 6442 0
6174 -6362 6442 0
-6442 -6441 -6394 0
6442 6441 -6394 0
-6442 6441 6394 0
6442 -6441 6394 0
-6174 -6362 6443 0
-6174 -6441 6443 0
-6362 -6441 6443 0
6174 6362 -6443 0
6174 6441 -6443 0
6362 6441 -6443 0
-6175 -6363 -6444 0
6175 6363 -6444 0
-6175 6363 6444 0
6175 -6363 6444 0
-6444 -6443 -6395 0
6444 6443 -6395 0
-6444 6443 6395 0
6444 -6443 6395 0
-6175 -6363 6445 0
-6175 -6443 6445 0
-6363 -6443 6445 0
6175 6363 -6445 0
6175 6443 -6445 0
6363 6443 -6445 0
-6176 -6364 -6446 0
6176 6364 -6446 0
-6176 6364 6446 0
6176 -6364 6446 0
-6446 -6445 -6396 0
6446 6445 -6396 0
-6446 6445 6396 0
6446 -6445 6396 0
-6176 -6364 6447 0
-6176 -6445 6447 0
-6364 -6445 6447 0
6176 6364 -6447 0
6176 6445 -6447 0
6364 6445 -6447 0
-6177 -6365 -6448 0
6177 6365 -6448 0
-6177 6365 6448 0
6177 -6365 6448 0
-6448 -6447 -6397 0
6448 6447 -6397 0
-6448 6447 6397 0
6448 -6447 6397 0
-6177 -6365 6449 0
-6177 -6447 6449 0
-6365 -6447 6449 0
6177 6365 -6449 0
6177 6447 -6449 0
6365 6447 -6449 0
-6178 -6366 -6450 0
6178 6366 -6450 0
-6178 6366 6450 0
6178 -6366 6450 0
-6450 -6449 -6398 0
6450 6449 -6398 0
-6450 6449 6398 0
6450 -6449 6398 0
-6178 -6366 6451 0
-6178 -6449 6451 0
-6366 -6449 6451 0
6178 6366 -6451 0
6178 6449 -6451 0
6366 6449 -6451 0
-6179 -6367 -6452 0
6179 6367 -6452 0
-6179 6367 6452 0
6179 -6367 6452 0
-6452 -6451 -6399 0
6452 6451 -6399 0
-6452 6451 6399 0
6452 -6451 6399 0
-6179 -6367 6453 0
-6179 -6451 6453 0
-6367 -6451 6453 0
6179 6367 -6453 0
6179 6451 -6453 0
6367 6451 -6453 0
-6180 -6368 -6454 0
6180 6368 -6454 0
-6180 6368 6454 0
6180 -6368 6454 0
-6454 -6453 -6400 0
6454 6453 -6400 0
-6454 6453 6400 0
6454 -6453 6400 0
-6180 -6368 6455 0
-6180 -6453 6455 0
-6368 -6453 6455 0
6180 6368 -6455 0
6180 6453 -6455 0
6368 6453 -6455 0
-6181 -6369 -6456 0
6181 6369 -6456 0
-6181 6369 6456 0
6181 -6369 6456 0
-6456 -6455 -6401 0
6456 6455 -6401 0
-6456 6455 6401 0
6456 -6455 6401 0
-6181 -6369 6457 0
-6181 -6455 6457 0
-6369 -6455 6457 0
6181 6369 -6457 0
6181 6455 -6457 0
6369 6455 -6457 0
-6182 -6370 -6458 0
6182 6370 -6458 0
-6182 6370 6458 0
6182 -6370 6458 0
-6458 -6457 -6402 0
6458 6457 -6402 0
-6458 6457 6402 0
6458 -6457 6402 0
-6182 -6370 6459 0
-6182 -6457 6459 0
-6370 -6457 6459 0
6182 6370 -6459 0
6182 6457 -6459 0
6370 6457 -6459 0
-6183 -6371 -6460 0
6183 6371 -6460 0
-6183 6371 6460 0
6183 -6371 6460 0
-6460 -6459 -6403 0
6460 6459 -6403 0
-6460 6459 6403 0
6460 -6459 6403 0
-6183 -6371 6461 0
-6183 -6459 6461 0
-6371 -6459 6461 0
6183 6371 -6461 0
6183 6459 -6461 0
6371 6459 -6461 0
-6184 -6372 -6462 0
6184 6372 -6462 0
-6184 6372 6462 0
6184 -6372 6462 0
-6462 -6461 -6404 0
6462 6461 -6404 0
-6462 6461 6404 0
6462 -6461 6404 0
-6184 -6372 6463 0
-6184 -6461 6463 0
-6372 -6461 6463 0
6184 6372 -6463 0
6184 6461 -6463 0
6372 6461 -6463 0
-6185 -6373 -6464 0
6185 6373 -6464 0
-6185 6373 6464 0
6185 -6373 6464 0
-6464 -6463 -6405 0
6464 6463 -6405 0
-6464 6463 6405 0
6464 -6463 6405 0
-6185 -6373 6465 0
-6185 -6463 6465 0
-6373 -6463 6465 0
6185 6373 -6465 0
6185 6463 -6465 0
6373 6463 -6465 0
-6186 -6374 -6466 0
6186 6374 -6466 0
-6186 6374 6466 0
6186 -6374 6466 0
-6466 -6465 -6406 0
6466 6465 -6406 0
-6466 6465 6406 0
6466 -6465 6406 0
-6186 -6374 6467 0
-6186 -6465 6467 0
-6374 -6465 6467 0
6186 6374 -6467 0
6186 6465 -6467 0
6374 6465 -6467 0
-6187 -6375 -6468 0
6187 6375 -6468 0
-6187 6375 6468 0
6187 -6375 6468 0
-6468 -6467 -6407 0
6468 6467 -6407 0
-6468 6467 6407 0
6468 -6467 6407 0
-6187 -6375 6469 0
-6187 -6467 6469 0
-6375 -6467 6469 0
6187 6375 -6469 0
6187 6467 -6469 0
6375 6467 -6469 0
-6188 -6376 -6470 0
6188 6376 -6470 0
-6188 6376 6470 0
6188 -6376 6470 0
-6470 -6469 -6408 0
6470 6469 -6408 0
-6470 6469 6408 0
6470 -6469 6408 0
-6251 -6377 -6471 0
6251 6377 -6471 0
-6251 6377 6471 0
6251 -6377 6471 0
-6251 -6377 6503 0
6251 -6503 0
6377 -6503 0
-6252 -6378 -6504 0
6252 6378 -6504 0
-6252 6378 6504 0
6252 -6378 6504 0
-6504 -6503 -6472 0
6504 6503 -6472 0
-6504 6503 6472 0
6504 -6503 6472 0
-6252 -6378 6505 0
-6252 -6503 6505 0
-6378 -6503 6505 0
6252 6378 -6505 0
6252 6503 -6505 0
6378 6503 -6505 0
-6253 -6379 -6506 0
6253 6379 -6506 0
-6253 6379 6506 0
6253 -6379 6506 0
-6506 -6505 -6473 0
6506 6505 -6473 0
-6506 6505 6473 0
6506 -6505 6473 0
-6253 -6379 6507 0
-6253 -6505 6507 0
-6379 -6505 6507 0
6253 6379 -6507 0
6253 6505 -6507 0
6379 6505 -6507 0
-6254 -6380 -6508 0
6254 6380 -6508 0
-6254 6380 6508 0
6254 -6380 6508 0
-6508 -6507 -6474 0
6508 6507 -6474 0
-6508 6507 6474 0
6508 -6507 6474 0
-6254 -6380 6509 0
-6254 -6507 6509 0
-6380 -6507 6509 0
6254 6380 -6509 0
6254 6507 -6509 0
6380 6507 -6509 0
-6255 -6381 -6510 0
6255 6381 -6510 0
-6255 6381 6510 0
6255 -6381 6510 0
-6510 -6509 -6475 0
6510 6509 -6475 0
-6510 6509 6475 0
6510 -6509 6475 0
-6255 -6381 6511 0
-6255 -6509 6511 0
-6381 -6509 6511 0
6255 6381 -6511 0
6255 6509 -6511 0
6381 6509 -6511 0
-6256 -6382 -6512 0
6256 6382 -6512 0
-6256 6382 6512 0
6256 -6382 6512 0
-6512 -6511 -6476 0
6512 6511 -6476 0
-6512 6511 6476 0
6512 -6511 6476 0
-6256 -6382 6513 0
-6256 -6511 6513 0
-6382 -6511 6513 0
6256 6382 -6513 0
6256 6511 -6513 0
6382 6511 -6513 0
-6257 -6383 -6514 0
6257 6383 -6514 0
-6257 6383 6514 0
6257 -6383 6514 0
-6514 -6513 -6477 0
6514 6513 -6477 0
-6514 6513 6477 0
6514 -6513 6477 0
-6257 -6383 6515 0
-6257 -6513 6515 0
-6383 -6513 6515 0
6257 6383 -6515 0
6257 6513 -6515 0
6383 6513 -6515 0
-6258 -6384 -6516 0
6258 6384 -6516 0
-6258 6384 6516 0
6258 -6384 6516 0
-6516 -6515 -6478 0
6516 6515 -6478 0
-6516 6515 6478 0
6516 -6515 6478 0
-6258 -6384 6517 0
-6258 -6515 6517 0
-6384 -6515 6517 0
6258 6384 -6517 0
6258 6515 -6517 0
6384 6515 -6517 0
-6259 -6385 -6518 0
6259 6385 -6518 0
-6259 6385 6518 0
6259 -6385 6518 0
-6518 -6517 -6479 0
6518 6517 -6479 0
-6518 6517 6479 0
6518 -6517 6479 0
-6259 -6385 6519 0
-6259 -6517 6519 0
-6385 -6517 6519 0
6259 6385 -6519 0
6259 6517 -6519 0
6385 6517 -6519 0
-6260 -6386 -6520 0
6260 6386 -6520 0
-6260 6386 6520 0
6260 -6386 6520 0
-6520 -6519 -6480 0
6520 6519 -6480 0
-6520 6519 6480 0
6520 -6519 6480 0
-6260 -6386 6521 0
-6260 -6519 6521 0
-6386 -6519 6521 0
6260 6386 -6521 0
6260 6519 -6521 0
6386 6519 -6521 0
-6261 -6387 -6522 0
6261 6387 -6522 0
-6261 6387 6522 0
6261 -6387 6522 0
-6522 -6521 -6481 0
6522 6521 -6481 0
-6522 6521 6481 0
6522 -6521 6481 0
-6261 -6387 6523 0
-6261 -6521 6523 0
-6387 -6521 6523 0
6261 6387 -6523 0
6261 6521 -6523 0
6387 6521 -6523 0
-6262 -6388 -6524 0
6262 6388 -6524 0
-6262 6388 6524 0
6262 -6388 6524 0
-6524 -6523 -6482 0
6524 6523 -6482 0
-6524 6523 6482 0
6524 -6523 6482 0
-6262 -6388 6525 0
-6262 -6523 6525 0
-6388 -6523 6525 0
6262 6388 -6525 0
6262 6523 -6525 0
6388 6523 -6525 0
-6263 -6389 -6526 0
6263 6389 -6526 0
-6263 6389 6526 0
6263 -6389 6526 0
-6526 -6525 -6483 0
6526 6525 -6483 0
-6526 6525 6483 0
6526 -6525 6483 0
-6263 -6389 6527 0
-6263 -6525 6527 0
-6389 -6525 6527 0
6263 6389 -6527 0
6263 6525 -6527 0
6389 6525 -6527 0
-6264 -6390 -6528 0
6264 6390 -6528 0
-6264 6390 6528 0
6264 -6390 6528 0
-6528 -6527 -6484 0
6528 6527 -6484 0
-6528 6527 6484 0
6528 -6527 6484 0
-6264 -6390 6529 0
-6264 -6527 6529 0
-6390 -6527 6529 0
6264 6390 -6529 0
6264 6527 -6529 0
6390 6527 -6529 0
-6265 -6391 -6530 0
6265 6391 -6530 0
-6265 6391 6530 0
6265 -6391 6530 0
-6530 -6529 -6485 0
6530 6529 -6485 0
-6530 6529 6485 0
6530 -6529 6485 0
-6265 -6391 6531 0
-6265 -6529 6531 0
-6391 -6529 6531 0
6265 6391 -6531 0
6265 6529 -6531 0
6391 6529 -6531 0
-6266 -6392 -6532 0
6266 6392 -6532 0
-6266 6392 6532 0
6266 -6392 6532 0
-6532 -6531 -6486 0
6532 6531 -6486 0
-6532 6531 6486 0
6532 -6531 6486 0
-6266 -6392 6533 0
-6266 -6531 6533 0
-6392 -6531 6533 0
6266 6392 -6533 0
6266 6531 -6533 0
6392 6531 -6533 0
-6267 -6393 -6534 0
6267 6393 -6534 0
-6267 6393 6534 0
6267 -6393 6534 0
-6534 -6533 -6487 0
6534 6533 -6487 0
-6534 6533 6487 0
6534 -6533 6487 0
-6267 -6393 6535 0
-6267 -6533 6535 0
-6393 -6533 6535 0
6267 6393 -6535 0
6267 6533 -6535 0
6393 6533 -6535 0
-6268 -6394 -6536 0
6268 6394 -6536 0
-6268 6394 6536 0
6268 -6394 6536 0
-6536 -6535 -6488 0
6536 6535 -6488 0
-6536 6535 6488 0
6536 -6535 6488 0
-6268 -6394 6537 0
-6268 -6535 6537 0
-6394 -6535 6537 0
6268 6394 -6537 0
6268 6535 -6537 0
6394 6535 -6537 0
-6269 -6395 -6538 0
6269 6395 -6538 0
-6269 6395 6538 0
6269 -6395 6538 0
-6538 -6537 -6489 0
6538 6537 -6489 0
-6538 6537 6489 0
6538 -6537 6489 0
-6269 -6395 6539 0
-6269 -6537 6539 0
-6395 -6537 6539 0
6269 6395 -6539 0
6269 6537 -6539 0
6395 6537 -6539 0
-6270 -6396 -6540 0
6270 6396 -6540 0
-6270 6396 6540 0
6270 -6396 6540 0
-6540 -6539 -6490 0
6540 6539 -6490 0
-6540 6539 6490 0
6540 -6539 6490 0
-6270 -6396 6541 0
-6270 -6539 6541 0
-6396 -6539 6541 0
6270 6396 -6541 0
6270 6539 -6541 0
6396 6539 -6541 0
-6271 -6397 -6542 0
6271 6397 -6542 0
-6271 6397 6542 0
6271 -6397 6542 0
-6542 -6541 -6491 0
6542 6541 -6491 0
-6542 6541 6491 0
6542 -6541 6491 0
-6271 -6397 6543 0
-6271 -6541 6543 0
-6397 -6541 6543 0
6271 6397 -6543 0
6271 6541 -6543 0
6397 6541 -6543 0
-6272 -6398 -6544 0
6272 6398 -6544 0
-6272 6398 6544 0
6272 -6398 6544 0
-6544 -6543 -6492 0
6544 6543 -6492 0
-6544 6543 6492 0
6544 -6543 6492 0
-6272 -6398 6545 0
-6272 -6543 6545 0
-6398 -6543 6545 0
6272 6398 -6545 0
6272 6543 -6545 0
6398 6543 -6545 0
-6273 -6399 -6546 0
6273 6399 -6546 0
-6273 6399 6546 0
6273 -6399 6546 0
-6546 -6545 -6493 0
6546 6545 -6493 0
-6546 6545 6493 0
6546 -6545 6493 0
-6273 -6399 6547 0
-6273 -6545 6547 0
-6399 -6545 6547 0
6273 6399 -6547 0
6273 6545 -6547 0
6399 6545 -6547 0
-6274 -6400 -6548 0
6274 6400 -6548 0
-6274 6400 6548 0
6274 -6400 6548 0
-6548 -6547 -6494 0
6548 6547 -6494 0
-6548 6547 6494 0
6548 -6547 6494 0
-6274 -6400 6549 0
-6274 -6547 6549 0
-6400 -6547 6549 0
6274 6400 -6549 0
6274 6547 -6549 0
6400 6547 -6549 0
-6275 -6401 -6550 0
6275 6401 -6550 0
-6275 6401 6550 0
6275 -6401 6550 0
-6550 -6549 -6495 0
6550 6549 -6495 0
-6550 6549 6495 0
6550 -6549 6495 0
-6275 -6401 6551 0
-6275 -6549 6551 0
-6401 -6549 6551 0
6275 6401 -6551 0
6275 6549 -6551 0
6401 6549 -6551 0
-6276 -6402 -6552 0
6276 6402 -6552 0
-6276 6402 6552 0
6276 -6402 6552 0
-6552 -6551 -6496 0
6552 6551 -6496 0
-6552 6551 6496 0
6552 -6551 6496 0
-6276 -6402 6553 0
-6276 -6551 6553 0
-6402 -6551 6553 0
6276 6402 -6553 0
6276 6551 -6553 0
6402 6551 -6553 0
-6277 -6403 -6554 0
6277 6403 -6554 0
-6277 6403 6554 0
6277 -6403 6554 0
-6554 -6553 -6497 0
6554 6553 -6497 0
-6554 6553 6497 0
6554 -6553 6497 0
-6277 -6403 6555 0
-6277 -6553 6555 0
-6403 -6553 6555 0
6277 6403 -6555 0
6277 6553 -6555 0
6403 6553 -6555 0
-6278 -6404 -6556 0
6278 6404 -6556 0
-6278 6404 6556 0
6278 -6404 6556 0
-6556 -6555 -6498 0
6556 6555 -6498 0
-6556 6555 6498 0
6556 -6555 6498 0
-6278 -6404 6557 0
-6278 -6555 6557 0
-6404 -6555 6557 0
6278 6404 -6557 0
6278 6555 -6557 0
6404 6555 -6557 0
-6279 -6405 -6558 0
6279 6405 -6558 0
-6279 6405 6558 0
6279 -6405 6558 0
-6558 -6557 -6499 0
6558 6557 -6499 0
-6558 6557 6499 0
6558 -6557 6499 0
-6279 -6405 6559 0
-6279 -6557 6559 0
-6405 -6557 6559 0
6279 6405 -6559 0
6279 6557 -6559 0
6405 6557 -6559 0
-6280 -6406 -6560 0
6280 6406 -6560 0
-6280 6406 6560 0
6280 -6406 6560 0
-6560 -6559 -6500 0
6560 6559 -6500 0
-6560 6559 6500 0
6560 -6559 6500 0
-6280 -6406 6561 0
-6280 -6559 6561 0
-6406 -6559 6561 0
6280 6406 -6561 0
6280 6559 -6561 0
6406 6559 -6561 0
-6281 -6407 -6562 0
6281 6407 -6562 0
-6281 6407 6562 0
6281 -6407 6562 0
-6562 -6561 -6501 0
6562 6561 -6501 0
-6562 6561 6501 0
6562 -6561 6501 0
-6281 -6407 6563 0
-6281 -6561 6563 0
-6407 -6561 6563 0
6281 6407 -6563 0
6281 6561 -6563 0
6407 6561 -6563 0
-6282 -6408 -6564 0
6282 6408 -6564 0
-6282 6408 6564 0
6282 -6408 6564 0
-6564 -6563 -6502 0
6564 6563 -6502 0
-6564 6563 6502 0
6564 -6563 6502 0
-5969 -5980 -6597 0
5969 5980 -6597 0
-5969 5980 6597 0
5969 -5980 6597 0
-6597 -5989 -6565 0
6597 5989 -6565 0
-6597 5989 6565 0
6597 -5989 6565 0
-5970 -5981 -6598 0
5970 5981 -6598 0
-5970 5981 6598 0
5970 -5981 6598 0
-6598 -5990 -6566 0
6598 5990 -6566 0
-6598 5990 6566 0
6598 -5990 6566 0
-5971 -5982 -6599 0
5971 5982 -6599 0
-5971 5982 6599 0
5971 -5982 6599 0
-6599 -5991 -6567 0
6599 5991 -6567 0
-6599 5991 6567 0
6599 -5991 6567 0
-5972 -5983 -6600 0
5972 5983 -6600 0
-5972 5983 6600 0
5972 -5983 6600 0
-6600 -5992 -6568 0
6600 5992 -6568 0
-6600 5992 6568 0
6600 -5992 6568 0
-5973 -5984 -6601 0
5973 5984 -6601 0
-5973 5984 6601 0
5973 -5984 6601 0
-6601 -5993 -6569 0
6601 5993 -6569 0
-6601 5993 6569 0
6601 -5993 6569 0
-5974 -5985 -6602 0
5974 5985 -6602 0
-5974 5985 6602 0
5974 -5985 6602 0
-6602 -5994 -6570 0
6602 5994 -6570 0
-6602 5994 6570 0
6602 -5994 6570 0
-5975 -5986 -6603 0
5975 5986 -6603 0
-5975 5986 6603 0
5975 -5986 6603 0
-6603 -5995 -6571 0
6603 5995 -6571 0
-6603 5995 6571 0
6603 -5995 6571 0
-5976 -5987 -6604 0
5976 5987 -6604 0
-5976 5987 6604 0
5976 -5987 6604 0
-6604 -5996 -6572 0
6604 5996 -6572 0
-6604 5996 6572 0
6604 -5996 6572 0
-5977 -5988 -6605 0
5977 5988 -6605 0
-5977 5988 6605 0
5977 -5988 6605 0
-6605 -5997 -6573 0
6605 5997 -6573 0
-6605 5997 6573 0
6605 -5997 6573 0
-5978 -5989 -6606 0
5978 5989 -6606 0
-5978 5989 6606 0
5978 -5989 6606 0
-6606 -5998 -6574 0
6606 5998 -6574 0
-6606 5998 6574 0
6606 -5998 6574 0
-5979 -5990 -6607 0
5979 5990 -6607 0
-5979 5990 6607 0
5979 -5990 6607 0
-6607 -5967 -6575 0
6607 5967 -6575 0
-6607 5967 6575 0
6607 -5967 6575 0
-5980 -5991 -6608 0
5980 5991 -6608 0
-5980 5991 6608 0
5980 -5991 6608 0
-6608 -5968 -6576 0
6608 5968 -6576 0
-6608 5968 6576 0
6608 -5968 6576 0
-5981 -5992 -6609 0
5981 5992 -6609 0
-5981 5992 6609 0
5981 -5992 6609 0
-6609 -5969 -6577 0
6609 5969 -6577 0
-6609 5969 6577 0
6609 -5969 6577 0
-5982 -5993 -6610 0
5982 5993 -6610 0
-5982 5993 6610 0
5982 -5993 6610 0
-6610 -5970 -6578 0
6610 5970 -6578 0
-6610 5970 6578 0
6610 -5970 6578 0
-5983 -5994 -6611 0
5983 5994 -6611 0
-5983 5994 6611 0
5983 -5994 6611 0
-6611 -5971 -6579 0
6611 5971 -6579 0
-6611 5971 6579 0
6611 -5971 6579 0
-5984 -5995 -6612 0
5984 5995 -6612 0
-5984 5995 6612 0
5984 -5995 6612 0
-6612 -5972 -6580 0
6612 5972 -6580 0
-6612 5972 6580 0
6612 -5972 6580 0
-5985 -5996 -6613 0
5985 5996 -6613 0
-5985 5996 6613 0
5985 -5996 6613 0
-6613 -5973 -6581 0
6613 5973 -6581 0
-6613 5973 6581 0
6613 -5973 6581 0
-5986 -5997 -6614 0
5986 5997 -6614 0
-5986 5997 6614 0
5986 -5997 6614 0
-6614 -5974 -6582 0
6614 5974 -6582 0
-6614 5974 6582 0
6614 -5974 6582 0
-5987 -5998 -6615 0
5987 5998 -6615 0
-5987 5998 6615 0
5987 -5998 6615 0
-6615 -5975 -6583 0
6615 5975 -6583 0
-6615 5975 6583 0
6615 -5975 6583 0
-5988 -5967 -6616 0
5988 5967 -6616 0
-5988 5967 6616 0
5988 -5967 6616 0
-6616 -5976 -6584 0
6616 5976 -6584 0
-6616 5976 6584 0
6616 -5976 6584 0
-5989 -5968 -6617 0
5989 5968 -6617 0
-5989 5968 6617 0
5989 -5968 6617 0
-6617 -5977 -6585 0
6617 5977 -6585 0
-6617 5977 6585 0
6617 -5977 6585 0
-5990 -5969 -6618 0
5990 5969 -6618 0
-5990 5969 6618 0
5990 -5969 6618 0
-6618 -5978 -6586 0
6618 5978 -6586 0
-6618 5978 6586 0
6618 -5978 6586 0
-5991 -5970 -6619 0
5991 5970 -6619 0
-5991 5970 6619 0
5991 -5970 6619 0
-6619 -5979 -6587 0
6619 5979 -6587 0
-6619 5979 6587 0
6619 -5979 6587 0
-5992 -5971 -6620 0
5992 5971 -6620 0
-5992 5971 6620 0
5992 -5971 6620 0
-6620 -5980 -6588 0
6620 5980 -6588 0
-6620 5980 6588 0
6620 -5980 6588 0
-5993 -5972 -6621 0
5993 5972 -6621 0
-5993 5972 6621 0
5993 -5972 6621 0
-6621 -5981 -6589 0
6621 5981 -6589 0
-6621 5981 6589 0
6621 -5981 6589 0
-5994 -5973 -6622 0
5994 5973 -6622 0
-5994 5973 6622 0
5994 -5973 6622 0
-6622 -5982 -6590 0
6622 5982 -6590 0
-6622 5982 6590 0
6622 -5982 6590 0
-5995 -5974 -6623 0
5995 5974 -6623 0
-5995 5974 6623 0
5995 -5974 6623 0
-6623 -5983 -6591 0
6623 5983 -6591 0
-6623 5983 6591 0
6623 -5983 6591 0
-5996 -5975 -6624 0
5996 5975 -6624 0
-5996 5975 6624 0
5996 -5975 6624 0
-6624 -5984 -6592 0
6624 5984 -6592 0
-6624 5984 6592 0
6624 -5984 6592 0
-5997 -5976 -6625 0
5997 5976 -6625 0
-5997 5976 6625 0
5997 -5976 6625 0
-6625 -5985 -6593 0
6625 5985 -6593 0
-6625 5985 6593 0
6625 -5985 6593 0
-5998 -5977 -6626 0
5998 5977 -6626 0
-5998 5977 6626 0
5998 -5977 6626 0
-6626 -5986 -6594 0
6626 5986 -6594 0
-6626 5986 6594 0
6626 -5986 6594 0
-5967 -5978 -6627 0
5967 5978 -6627 0
-5967 5978 6627 0
5967 -5978 6627 0
-6627 -5987 -6595 0
6627 5987 -6595 0
-6627 5987 6595 0
6627 -5987 6595 0
-5968 -5979 -6628 0
5968 5979 -6628 0
-5968 5979 6628 0
5968 -5979 6628 0
-6628 -5988 -6596 0
6628 5988 -6596 0
-6628 5988 6596 0
6628 -5988 6596 0
-5967 -5085 6629 0
-5967 -4203 6629 0
-5085 -4203 6629 0
5967 5085 -6629 0
5967 4203 -6629 0
5085 4203 -6629 0
-5968 -5086 6630 0
-5968 -4204 6630 0
-5086 -4204 6630 0
5968 5086 -6630 0
5968 4204 -6630 0
5086 4204 -6630 0
-5969 -5087 6631 0
-5969 -4205 6631 0
-5087 -4205 6631 0
5969 5087 -6631 0
5969 4205 -6631 0
5087 4205 -6631 0
-5970 -5088 6632 0
-5970 -4206 6632 0
-5088 -4206 6632 0
5970 5088 -6632 0
5970 4206 -6632 0
5088 4206 -6632 0
-5971 -5089 6633 0
-5971 -4207 6633 0
-5089 -4207 6633 0
5971 5089 -6633 0
5971 4207 -6633 0
5089 4207 -6633 0
-5972 -5090 6634 0
-5972 -4208 6634 0
-5090 -4208 6634 0
5972 5090 -6634 0
5972 4208 -6634 0
5090 4208 -6634 0
-5973 -5091 6635 0
-5973 -4209 6635 0
-5091 -4209 6635 0
5973 5091 -6635 0
5973 4209 -6635 0
5091 4209 -6635 0
-5974 -5092 6636 0
-5974 -4210 6636 0
-5092 -4210 6636 0
5974 5092 -6636 0
5974 4210 -6636 0
5092 4210 -6636 0
-5975 -5093 6637 0
-5975 -4211 6637 0
-5093 -4211 6637 0
5975 5093 -6637 0
5975 4211 -6637 0
5093 4211 -6637 0
-5976 -5094 6638 0
-5976 -4212 6638 0
-5094 -4212 6638 0
5976 5094 -6638 0
5976 4212 -6638 0
5094 4212 -6638 0
-5977 -5095 6639 0
-5977 -4213 6639 0
-5095 -4213 6639 0
5977 5095 -6639 0
5977 4213 -6639 0
5095 4213 -6639 0
-5978 -5096 6640 0
-5978 -4214 6640 0
-5096 -4214 6640 0
5978 5096 -6640 0
5978 4214 -6640 0
5096 4214 -6640 0
-5979 -5097 6641 0
-5979 -4215 6641 0
-5097 -4215 6641 0
5979 5097 -6641 0
5979 4215 -6641 0
5097 4215 -6641 0
-5980 -5098 6642 0
-5980 -4216 6642 0
-5098 -4216 6642 0
5980 5098 -6642 0
5980 4216 -6642 0
5098 4216 -6642 0
-5981 -5099 6643 0
-5981 -4217 6643 0
-5099 -4217 6643 0
5981 5099 -6643 0
5981 4217 -6643 0
5099 4217 -6643 0
-5982 -5100 6644 0
-5982 -4218 6644 0
-5100 -4218 6644 0
5982 5100 -6644 0
5982 4218 -6644 0
5100 4218 -6644 0
-5983 -5101 6645 0
-5983 -4219 6645 0
-5101 -4219 6645 0
5983 5101 -6645 0
5983 4219 -6645 0
5101 4219 -6645 0
-5984 -5102 6646 0
-5984 -4220 6646 0
-5102 -4220 6646 0
5984 5102 -6646 0
5984 4220 -6646 0
5102 4220 -6646 0
-5985 -5103 6647 0
-5985 -4221 6647 0
-5103 -4221 6647 0
5985 5103 -6647 0
5985 4221 -6647 0
5103 4221 -6647 0
-5986 -5104 6648 0
-5986 -4222 6648 0
-5104 -4222 6648 0
5986 5104 -6648 0
5986 4222 -6648 0
5104 4222 -6648 0
-5987 -5105 6649 0
-5987 -4223 6649 0
-5105 -4223 6649 0
5987 5105 -6649 0
5987 4223 -6649 0
5105 4223 -6649 0
-5988 -5106 6650 0
-5988 -4224 6650 0
-5106 -4224 6650 0
5988 5106 -6650 0
5988 4224 -6650 0
5106 4224 -6650 0
-5989 -5107 6651 0
-5989 -4225 6651 0
-5107 -4225 6651 0
5989 5107 -6651 0
5989 4225 -6651 0
5107 4225 -6651 0
-5990 -5108 6652 0
-5990 -4226 6652 0
-5108 -4226 6652 0
5990 5108 -6652 0
5990 4226 -6652 0
5108 4226 -6652 0
-5991 -5109 6653 0
-5991 -4227 6653 0
-5109 -4227 6653 0
5991 5109 -6653 0
5991 4227 -6653 0
5109 4227 -6653 0
-5992 -5110 6654 0
-5992 -4228 6654 0
-5110 -4228 6654 0
5992 5110 -6654 0
5992 4228 -6654 0
5110 4228 -6654 0
-5993 -5111 6655 0
-5993 -4229 6655 0
-5111 -4229 6655 0
5993 5111 -6655 0
5993 4229 -6655 0
5111 4229 -6655 0
-5994 -5112 6656 0
-5994 -4230 6656 0
-5112 -4230 6656 0
5994 5112 -6656 0
5994 4230 -6656 0
5112 4230 -6656 0
-5995 -5113 6657 0
-5995 -4231 6657 0
-5113 -4231 6657 0
5995 5113 -6657 0
5995 4231 -6657 0
5113 4231 -6657 0
-5996 -5114 6658 0
-5996 -4232 6658 0
-5114 -4232 6658 0
5996 5114 -6658 0
5996 4232 -6658 0
5114 4232 -6658 0
-5997 -5115 6659 0
-5997 -4233 6659 0
-5115 -4233 6659 0
5997 5115 -6659 0
5997 4233 -6659 0
5115 4233 -6659 0
-5998 -5116 6660 0
-5998 -4234 6660 0
-5116 -4234 6660 0
5998 5116 -6660 0
5998 4234 -6660 0
5116 4234 -6660 0
-6565 -6629 -6661 0
6565 6629 -6661 0
-6565 6629 6661 0
6565 -6629 6661 0
-6565 -6629 6693 0
6565 -6693 0
6629 -6693 0
-6566 -6630 -6694 0
6566 6630 -6694 0
-6566 6630 6694 0
6566 -6630 6694 0
-6694 -6693 -6662 0
6694 6693 -6662 0
-6694 6693 6662 0
6694 -6693 6662 0
-6566 -6630 6695 0
-6566 -6693 6695 0
-6630 -6693 6695 0
6566 6630 -6695 0
6566 6693 -6695 0
6630 6693 -6695 0
-6567 -6631 -6696 0
6567 6631 -6696 0
-6567 6631 6696 0
6567 -6631 6696 0
-6696 -6695 -6663 0
6696 6695 -6663 0
-6696 6695 6663 0
6696 -6695 6663 0
-6567 -6631 6697 0
-6567 -6695 6697 0
-6631 -6695 6697 0
6567 6631 -6697 0
6567 6695 -6697 0
6631 6695 -6697 0
-6568 -6632 -6698 0
6568 6632 -6698 0
-6568 6632 6698 0
6568 -6632 6698 0
-6698 -6697 -6664 0
6698 6697 -6664 0
-6698 6697 6664 0
6698 -6697 6664 0
-6568 -6632 6699 0
-6568 -6697 6699 0
-6632 -6697 6699 0
6568 6632 -6699 0
6568 6697 -6699 0
6632 6697 -6699 0
-6569 -6633 -6700 0
6569 6633 -6700 0
-6569 6633 6700 0
6569 -6633 6700 0
-6700 -6699 -6665 0
6700 6699 -6665 0
-6700 6699 6665 0
6700 -6699 6665 0
-6569 -6633 6701 0
-6569 -6699 6701 0
-6633 -6699 6701 0
6569 6633 -6701 0
6569 6699 -6701 0
6633 6699 -6701 0
-6570 -6634 -6702 0
6570 6634 -6702 0
-6570 6634 6702 0
6570 -6634 6702 0
-6702 -6701 -6666 0
6702 6701 -6666 0
-6702 6701 6666 0
6702 -6701 6666 0
-6570 -6634 6703 0
-6570 -6701 6703 0
-6634 -6701 6703 0
6570 6634 -6703 0
6570 6701 -6703 0
6634 6701 -6703 0
-6571 -6635 -6704 0
6571 6635 -6704 0
-6571 6635 6704 0
6571 -6635 6704 0
-6704 -6703 -6667 0
6704 6703 -6667 0
-6704 6703 6667 0
6704 -6703 6667 0
-6571 -6635 6705 0
-6571 -6703 6705 0
-6635 -6703 6705 0
6571 6635 -6705 0
6571 6703 -6705 0
6635 6703 -6705 0
-6572 -6636 -6706 0
6572 6636 -6706 0
-6572 6636 6706 0
6572 -6636 6706 0
-6706 -6705 -6668 0
6706 6705 -6668 0
-6706 6705 6668 0
6706 -6705 6668 0
-6572 -6636 6707 0
-6572 -6705 6707 0
-6636 -6705 6707 0
6572 6636 -6707 0
6572 6705 -6707 0
6636 6705 -6707 0
-6573 -6637 -6708 0
6573 6637 -6708 0
-6573 6637 6708 0
6573 -6637 6708 0
-6708 -6707 -6669 0
6708 6707 -6669 0
-6708 6707 6669 0
6708 -6707 6669 0
-6573 -6637 6709 0
-6573 -6707 6709 0
-6637 -6707 6709 0
6573 6637 -6709 0
6573 6707 -6709 0
6637 6707 -6709 0
-6574 -6638 -6710 0
6574 6638 -6710 0
-6574 6638 6710 0
6574 -6638 6710 0
-6710 -6709 -6670 0
6710 6709 -6670 0
-6710 6709 6670 0
6710 -6709 6670 0
-6574 -6638 6711 0
-6574 -6709 6711 0
-6638 -6709 6711 0
6574 6638 -6711 0
6574 6709 -6711 0
6638 6709 -6711 0
-6575 -6639 -6712 0
6575 6639 -6712 0
-6575 6639 6712 0
6575 -6639 6712 0
-6712 -6711 -6671 0
6712 6711 -6671 0
-6712 6711 6671 0
6712 -6711 6671 0
-6575 -6639 6713 0
-6575 -6711 6713 0
-6639 -6711 6713 0
6575 6639 -6713 0
6575 6711 -6713 0
6639 6711 -6713 0
-6576 -6640 -6714 0
6576 6640 -6714 0
-6576 6640 6714 0
6576 -6640 6714 0
-6714 -6713 -6672 0
6714 6713 -6672 0
-6714 6713 6672 0
6714 -6713 6672 0
-6576 -6640 6715 0
-6576 -6713 6715 0
-6640 -6713 6715 0
6576 6640 -6715 0
6576 6713 -6715 0
6640 6713 -6715 0
-6577 -6641 -6716 0
6577 6641 -6716 0
-6577 6641 6716 0
6577 -6641 6716 0
-6716 -6715 -6673 0
6716 6715 -6673 0
-6716 6715 6673 0
6716 -6715 6673 0
-6577 -6641 6717 0
-6577 -6715 6717 0
-6641 -6715 6717 0
6577 6641 -6717 0
6577 6715 -6717 0
6641 6715 -6717 0
-6578 -6642 -6718 0
6578 6642 -6718 0
-6578 6642 6718 0
6578 -6642 6718 0
-6718 -6717 -6674 0
6718 6717 -6674 0
-6718 6717 6674 0
6718 -6717 6674 0
-6578 -6642 6719 0
-6578 -6717 6719 0
-6642 -6717 6719 0
6578 6642 -6719 0
6578 6717 -6719 0
6642 6717 -6719 0
-6579 -6643 -6720 0
6579 6643 -6720 0
-6579 6643 6720 0
6579 -6643 6720 0
-6720 -6719 -6675 0
6720 6719 -6675 0
-6720 6719 6675 0
6720 -6719 6675 0
-6579 -6643 6721 0
-6579 -6719 6721 0
-6643 -6719 6721 0
6579 6643 -6721 0
6579 6719 -6721 0
6643 6719 -6721 0
-6580 -6644 -6722 0
6580 6644 -6722 0
-6580 6644 6722 0
6580 -6644 6722 0
-6722 -6721 -6676 0
6722 6721 -6676 0
-6722 6721 6676 0
6722 -6721 6676 0
-6580 -6644 6723 0
-6580 -6721 6723 0
-6644 -6721 6723 0
6580 6644 -6723 0
6580 6721 -6723 0
6644 6721 -6723 0
-6581 -6645 -6724 0
6581 6645 -6724 0
-6581 6645 6724 0
6581 -6645 6724 0
-6724 -6723 -6677 0
6724 6723 -6677 0
-6724 6723 6677 0
6724 -6723 6677 0
-6581 -6645 6725 0
-6581 -6723 6725 0
-6645 -6723 6725 0
6581 6645 -6725 0
6581 6723 -6725 0
6645 6723 -6725 0
-6582 -6646 -6726 0
6582 6646 -6726 0
-6582 6646 6726 0
6582 -6646 6726 0
-6726 -6725 -6678 0
6726 6725 -6678 0
-6726 6725 6678 0
6726 -6725 6678 0
-6582 -6646 6727 0
-6582 -6725 6727 0
-6646 -6725 6727 0
6582 6646 -6727 0
6582 6725 -6727 0
6646 6725 -6727 0
-6583 -6647 -6728 0
6583 6647 -6728 0
-6583 6647 6728 0
6583 -6647 6728 0
-6728 -6727 -6679 0
6728 6727 -6679 0
-6728 6727 6679 0
6728 -6727 6679 0
-6583 -6647 6729 0
-6583 -6727 6729 0
-6647 -6727 6729 0
6583 6647 -6729 0
6583 6727 -6729 0
6647 6727 -6729 0
-6584 -6648 -6730 0
6584 6648 -6730 0
-6584 6648 6730 0
6584 -6648 6730 0
-6730 -6729 -6680 0
6730 6729 -6680 0
-6730 6729 6680 0
6730 -6729 6680 0
-6584 -6648 6731 0
-6584 -6729 6731 0
-6648 -6729 6731 0
6584 6648 -6731 0
6584 6729 -6731 0
6648 6729 -6731 0
-6585 -6649 -6732 0
6585 6649 -6732 0
-6585 6649 6732 0
6585 -6649 6732 0
-6732 -6731 -6681 0
6732 6731 -6681 0
-6732 6731 6681 0
6732 -6731 6681 0
-6585 -6649 6733 0
-6585 -6731 6733 0
-6649 -6731 6733 0
6585 6649 -6733 0
6585 6731 -6733 0
6649 6731 -6733 0
-6586 -6650 -6734 0
6586 6650 -6734 0
-6586 6650 6734 0
6586 -6650 6734 0
-6734 -6733 -6682 0
6734 6733 -6682 0
-6734 6733 6682 0
6734 -6733 6682 0
-6586 -6650 6735 0
-6586 -6733 6735 0
-6650 -6733 6735 0
6586 6650 -6735 0
6586 6733 -6735 0
6650 6733 -6735 0
-6587 -6651 -6736 0
6587 6651 -6736 0
-6587 6651 6736 0
6587 -6651 6736 0
-6736 -6735 -6683 0
6736 6735 -6683 0
-6736 6735 6683 0
6736 -6735 6683 0
-6587 -6651 6737 0
-6587 -6735 6737 0
-6651 -6735 6737 0
6587 6651 -6737 0
6587 6735 -6737 0
6651 6735 -6737 0
-6588 -6652 -6738 0
6588 6652 -6738 0
-6588 6652 6738 0
6588 -6652 6738 0
-6738 -6737 -6684 0
6738 6737 -6684 0
-6738 6737 6684 0
6738 -6737 6684 0
-6588 -6652 6739 0
-6588 -6737 6739 0
-6652 -6737 6739 0
6588 6652 -6739 0
6588 6737 -6739 0
6652 6737 -6739 0
-6589 -6653 -6740 0
6589 6653 -6740 0
-6589 6653 6740 0
6589 -6653 6740 0
-6740 -6739 -6685 0
6740 6739 -6685 0
-6740 6739 6685 0
6740 -6739 6685 0
-6589 -6653 6741 0
-6589 -6739 6741 0
-6653 -6739 6741 0
6589 6653 -6741 0
6589 6739 -6741 0
6653 6739 -6741 0
-6590 -6654 -6742 0
6590 6654 -6742 0
-6590 6654 6742 0
6590 -6654 6742 0
-6742 -6741 -6686 0
6742 6741 -6686 0
-6742 6741 6686 0
6742 -6741 6686 0
-6590 -6654 6743 0
-6590 -6741 6743 0
-6654 -6741 6743 0
6590 6654 -6743 0
6590 6741 -6743 0
6654 6741 -6743 0
-6591 -6655 -6744 0
6591 6655 -6744 0
-6591 6655 6744 0
6591 -6655 6744 0
-6744 -6743 -6687 0
6744 6743 -6687 0
-6744 6743 6687 0
6744 -6743 6687 0
-6591 -6655 6745 0
-6591 -6743 6745 0
-6655 -6743 6745 0
6591 6655 -6745 0
6591 6743 -6745 0
6655 6743 -6745 0
-6592 -6656 -6746 0
6592 6656 -6746 0
-6592 6656 6746 0
6592 -6656 6746 0
-6746 -6745 -6688 0
6746 6745 -6688 0
-6746 6745 6688 0
6746 -6745 6688 0
-6592 -6656 6747 0
-6592 -6745 6747 0
-6656 -6745 6747 0
6592 6656 -6747 0
6592 6745 -6747 0
6656 6745 -6747 0
-6593 -6657 -6748 0
6593 6657 -6748 0
-6593 6657 6748 0
6593 -6657 6748 0
-6748 -6747 -6689 0
6748 6747 -6689 0
-6748 6747 6689 0
6748 -6747 6689 0
-6593 -6657 6749 0
-6593 -6747 6749 0
-6657 -6747 6749 0
6593 6657 -6749 0
6593 6747 -6749 0
6657 6747 -6749 0
-6594 -6658 -6750 0
6594 6658 -6750 0
-6594 6658 6750 0
6594 -6658 6750 0
-6750 -6749 -6690 0
6750 6749 -6690 0
-6750 6749 6690 0
6750 -6749 6690 0
-6594 -6658 6751 0
-6594 -6749 6751 0
-6658 -6749 6751 0
6594 6658 -6751 0
6594 6749 -6751 0
6658 6749 -6751 0
-6595 -6659 -6752 0
6595 6659 -6752 0
-6595 6659 6752 0
6595 -6659 6752 0
-6752 -6751 -6691 0
6752 6751 -6691 0
-6752 6751 6691 0
6752 -6751 6691 0
-6595 -6659 6753 0
-6595 -6751 6753 0
-6659 -6751 6753 0
6595 6659 -6753 0
6595 6751 -6753 0
6659 6751 -6753 0
-6596 -6660 -6754 0
6596 6660 -6754 0
-6596 6660 6754 0
6596 -6660 6754 0
-6754 -6753 -6692 0
6754 6753 -6692 0
-6754 6753 6692 0
6754 -6753 6692 0
-3321 -6471 -6755 0
3321 6471 -6755 0
-3321 6471 6755 0
3321 -6471 6755 0
-3321 -6471 6787 0
3321 -6787 0
6471 -6787 0
-3322 -6472 -6788 0
3322 6472 -6788 0
-3322 6472 6788 0
3322 -6472 6788 0
-6788 -6787 -6756 0
6788 6787 -6756 0
-6788 6787 6756 0
6788 -6787 6756 0
-3322 -6472 6789 0
-3322 -6787 6789 0
-6472 -6787 6789 0
3322 6472 -6789 0
3322 6787 -6789 0
6472 6787 -6789 0
-3323 -6473 -6790 0
3323 6473 -6790 0
-3323 6473 6790 0
3323 -6473 6790 0
-6790 -6789 -6757 0
6790 6789 -6757 0
-6790 6789 6757 0
6790 -6789 6757 0
-3323 -6473 6791 0
-3323 -6789 6791 0
-6473 -6789 6791 0
3323 6473 -6791 0
3323 6789 -6791 0
6473 6789 -6791 0
-3324 -6474 -6792 0
3324 6474 -6792 0
-3324 6474 6792 0
3324 -6474 6792 0
-6792 -6791 -6758 0
6792 6791 -6758 0
-6792 6791 6758 0
6792 -6791 6758 0
-3324 -6474 6793 0
-3324 -6791 6793 0
-6474 -6791 6793 0
3324 6474 -6793 0
3324 6791 -6793 0
6474 6791 -6793 0
-3325 -6475 -6794 0
3325 6475 -6794 0
-3325 6475 6794 0
3325 -6475 6794 0
-6794 -6793 -6759 0
6794 6793 -6759 0
-6794 6793 6759 0
6794 -6793 6759 0
-3325 -6475 6795 0
-3325 -6793 6795 0
-6475 -6793 6795 0
3325 6475 -6795 0
3325 6793 -6795 0
6475 6793 -6795 0
-3326 -6476 -6796 0
3326 6476 -6796 0
-3326 6476 6796 0
3326 -6476 6796 0
-6796 -6795 -6760 0
6796 6795 -6760 0
-6796 6795 6760 0
6796 -6795 6760 0
-3326 -6476 6797 0
-3326 -6795 6797 0
-6476 -6795 6797 0
3326 6476 -6797 0
3326 6795 -6797 0
6476 6795 -6797 0
-3327 -6477 -6798 0
3327 6477 -6798 0
-3327 6477 6798 0
3327 -6477 6798 0
-6798 -6797 -6761 0
6798 6797 -6761 0
-6798 6797 6761 0
6798 -6797 6761 0
-3327 -6477 6799 0
-3327 -6797 6799 0
-6477 -6797 6799 0
3327 6477 -6799 0
3327 6797 -6799 0
6477 6797 -6799 0
-3328 -6478 -6800 0
3328 6478 -6800 0
-3328 6478 6800 0
3328 -6478 6800 0
-6800 -6799 -6762 0
6800 6799 -6762 0
-6800 6799 6762 0
6800 -6799 6762 0
-3328 -6478 6801 0
-3328 -6799 6801 0
-6478 -6799 6801 0
3328 6478 -6801 0
3328 6799 -6801 0
6478 6799 -6801 0
-3329 -6479 -6802 0
3329 6479 -6802 0
-3329 6479 6802 0
3329 -6479 6802 0
-6802 -6801 -6763 0
6802 6801 -6763 0
-6802 6801 6763 0
6802 -6801 6763 0
-3329 -6479 6803 0
-3329 -6801 6803 0
-6479 -6801 6803 0
3329 6479 -6803 0
3329 6801 -6803 0
6479 6801 -6803 0
-3330 -6480 -6804 0
3330 6480 -6804 0
-3330 6480 6804 0
3330 -6480 6804 0
-6804 -6803 -6764 0
6804 6803 -6764 0
-6804 6803 6764 0
6804 -6803 6764 0
-3330 -6480 6805 0
-3330 -6803 6805 0
-6480 -6803 6805 0
3330 6480 -6805 0
3330 6803 -6805 0
6480 6803 -6805 0
-3331 -6481 -6806 0
3331 6481 -6806 0
-3331 6481 6806 0
3331 -6481 6806 0
-6806 -6805 -6765 0
6806 6805 -6765 0
-6806 6805 6765 0
6806 -6805 6765 0
-3331 -6481 6807 0
-3331 -6805 6807 0
-6481 -6805 6807 0
3331 6481 -6807 0
3331 6805 -6807 0
6481 6805 -6807 0
-3332 -6482 -6808 0
3332 6482 -6808 0
-3332 6482 6808 0
3332 -6482 6808 0
-6808 -6807 -6766 0
6808 6807 -6766 0
-6808 6807 6766 0
6808 -6807 6766 0
-3332 -6482 6809 0
-3332 -6807 6809 0
-6482 -6807 6809 0
3332 6482 -6809 0
3332 6807 -6809 0
6482 6807 -6809 0
-3333 -6483 -6810 0
3333 6483 -6810 0
-3333 6483 6810 0
3333 -6483 6810 0
-6810 -6809 -6767 0
6810 6809 -6767 0
-6810 6809 6767 0
6810 -6809 6767 0
-3333 -6483 6811 0
-3333 -6809 6811 0
-6483 -6809 6811 0
3333 6483 -6811 0
3333 6809 -6811 0
6483 6809 -6811 0
-3334 -6484 -6812 0
3334 6484 -6812 0
-3334 6484 6812 0
3334 -6484 6812 0
-6812 -6811 -6768 0
6812 6811 -6768 0
-6812 6811 6768 0
6812 -6811 6768 0
-3334 -6484 6813 0
-3334 -6811 6813 0
-6484 -6811 6813 0
3334 6484 -6813 0
3334 6811 -6813 0
6484 6811 -6813 0
-3335 -6485 -6814 0
3335 6485 -6814 0
-3335 6485 6814 0
3335 -6485 6814 0
-6814 -6813 -6769 0
6814 6813 -6769 0
-6814 6813 6769 0
6814 -6813 6769 0
-3335 -6485 6815 0
-3335 -6813 6815 0
-6485 -6813 6815 0
3335 6485 -6815 0
3335 6813 -6815 0
6485 6813 -6815 0
-3336 -6486 -6816 0
3336 6486 -6816 0
-3336 6486 6816 0
3336 -6486 6816 0
-6816 -6815 -6770 0
6816 6815 -6770 0
-6816 6815 6770 0
6816 -6815 6770 0
-3336 -6486 6817 0
-3336 -6815 6817 0
-6486 -6815 6817 0
3336 6486 -6817 0
3336 6815 -6817 0
6486 6815 -6817 0
-3337 -6487 -6818 0
3337 6487 -6818 0
-3337 6487 6818 0
3337 -6487 6818 0
-6818 -6817 -6771 0
6818 6817 -6771 0
-6818 6817 6771 0
6818 -6817 6771 0
-3337 -6487 6819 0
-3337 -6817 6819 0
-6487 -6817 6819 0
3337 6487 -6819 0
3337 6817 -6819 0
6487 6817 -6819 0
-3338 -6488 -6820 0
3338 6488 -6820 0
-3338 6488 6820 0
3338 -6488 6820 0
-6820 -6819 -6772 0
6820 6819 -6772 0
-6820 6819 6772 0
6820 -6819 6772 0
-3338 -6488 6821 0
-3338 -6819 6821 0
-6488 -6819 6821 0
3338 6488 -6821 0
3338 6819 -6821 0
6488 6819 -6821 0
-3339 -6489 -6822 0
3339 6489 -6822 0
-3339 6489 6822 0
3339 -6489 6822 0
-6822 -6821 -6773 0
6822 6821 -6773 0
-6822 6821 6773 0
6822 -6821 6773 0
-3339 -6489 6823 0
-3339 -6821 6823 0
-6489 -6821 6823 0
3339 6489 -6823 0
3339 6821 -6823 0
6489 6821 -6823 0
-3340 -6490 -6824 0
3340 6490 -6824 0
-3340 6490 6824 0
3340 -6490 6824 0
-6824 -6823 -6774 0
6824 6823 -6774 0
-6824 6823 6774 0
6824 -6823 6774 0
-3340 -6490 6825 0
-3340 -6823 6825 0
-6490 -6823 6825 0
3340 6490 -6825 0
3340 6823 -6825 0
6490 6823 -6825 0
-3341 -6491 -6826 0
3341 6491 -6826 0
-3341 6491 6826 0
3341 -6491 6826 0
-6826 -6825 -6775 0
6826 6825 -6775 0
-6826 6825 6775 0
6826 -6825 6775 0
-3341 -6491 6827 0
-3341 -6825 6827 0
-6491 -6825 6827 0
3341 6491 -6827 0
3341 6825 -6827 0
6491 6825 -6827 0
-3342 -6492 -6828 0
3342 6492 -6828 0
-3342 6492 6828 0
3342 -6492 6828 0
-6828 -6827 -6776 0
6828 6827 -6776 0
-6828 6827 6776 0
6828 -6827 6776 0
-3342 -6492 6829 0
-3342 -6827 6829 0
-6492 -6827 6829 0
3342 6492 -6829 0
3342 6827 -6829 0
6492 6827 -6829 0
-3343 -6493 -6830 0
3343 6493 -6830 0
-3343 6493 6830 0
3343 -6493 6830 0
-6830 -6829 -6777 0
6830 6829 -6777 0
-6830 6829 6777 0
6830 -6829 6777 0
-3343 -6493 6831 0
-3343 -6829 6831 0
-6493 -6829 6831 0
3343 6493 -6831 0
3343 6829 -6831 0
6493 6829 -6831 0
-3344 -6494 -6832 0
3344 6494 -6832 0
-3344 6494 6832 0
3344 -6494 6832 0
-6832 -6831 -6778 0
6832 6831 -6778 0
-6832 6831 6778 0
6832 -6831 6778 0
-3344 -6494 6833 0
-3344 -6831 6833 0
-6494 -6831 6833 0
3344 6494 -6833 0
3344 6831 -6833 0
6494 6831 -6833 0
-3345 -6495 -6834 0
3345 6495 -6834 0
-3345 6495 6834 0
3345 -6495 6834 0
-6834 -6833 -6779 0
6834 6833 -6779 0
-6834 6833 6779 0
6834 -6833 6779 0
-3345 -6495 6835 0
-3345 -6833 6835 0
-6495 -6833 6835 0
3345 6495 -6835 0
3345 6833 -6835 0
6495 6833 -6835 0
-3346 -6496 -6836 0
3346 6496 -6836 0
-3346 6496 6836 0
3346 -6496 6836 0
-6836 -6835 -6780 0
6836 6835 -6780 0
-6836 6835 6780 0
6836 -6835 6780 0
-3346 -6496 6837 0
-3346 -6835 6837 0
-6496 -6835 6837 0
3346 6496 -6837 0
3346 6835 -6837 0
6496 6835 -6837 0
-3347 -6497 -6838 0
3347 6497 -6838 0
-3347 6497 6838 0
3347 -6497 6838 0
-6838 -6837 -6781 0
6838 6837 -6781 0
-6838 6837 6781 0
6838 -6837 6781 0
-3347 -6497 6839 0
-3347 -6837 6839 0
-6497 -6837 6839 0
3347 6497 -6839 0
3347 6837 -6839 0
6497 6837 -6839 0
-3348 -6498 -6840 0
3348 6498 -6840 0
-3348 6498 6840 0
3348 -6498 6840 0
-6840 -6839 -6782 0
6840 6839 -6782 0
-6840 6839 6782 0
6840 -6839 6782 0
-3348 -6498 6841 0
-3348 -6839 6841 0
-6498 -6839 6841 0
3348 6498 -6841 0
3348 6839 -6841 0
6498 6839 -6841 0
-3349 -6499 -6842 0
3349 6499 -6842 0
-3349 6499 6842 0
3349 -6499 6842 0
-6842 -6841 -6783 0
6842 6841 -6783 0
-6842 6841 6783 0
6842 -6841 6783 0
-3349 -6499 6843 0
-3349 -6841 6843 0
-6499 -6841 6843 0
3349 6499 -6843 0
3349 6841 -6843 0
6499 6841 -6843 0
-3350 -6500 -6844 0
3350 6500 -6844 0
-3350 6500 6844 0
3350 -6500 6844 0
-6844 -6843 -6784 0
6844 6843 -6784 0
-6844 6843 6784 0
6844 -6843 6784 0
-3350 -6500 6845 0
-3350 -6843 6845 0
-6500 -6843 6845 0
3350 6500 -6845 0
3350 6843 -6845 0
6500 6843 -6845 0
-3351 -6501 -6846 0
3351 6501 -6846 0
-3351 6501 6846 0
3351 -6501 6846 0
-6846 -6845 -6785 0
6846 6845 -6785 0
-6846 6845 6785 0
6846 -6845 6785 0
-3351 -6501 6847 0
-3351 -6845 6847 0
-6501 -6845 6847 0
3351 6501 -6847 0
3351 6845 -6847 0
6501 6845 -6847 0
-3352 -6502 -6848 0
3352 6502 -6848 0
-3352 6502 6848 0
3352 -6502 6848 0
-6848 -6847 -6786 0
6848 6847 -6786 0
-6848 6847 6786 0
6848 -6847 6786 0
-6471 -6661 -6849 0
6471 6661 -6849 0
-6471 6661 6849 0
6471 -6661 6849 0
-6471 -6661 6881 0
6471 -6881 0
6661 -6881 0
-6472 -6662 -6882 0
6472 6662 -6882 0
-6472 6662 6882 0
6472 -6662 6882 0
-6882 -6881 -6850 0
6882 6881 -6850 0
-6882 6881 6850 0
6882 -6881 6850 0
-6472 -6662 6883 0
-6472 -6881 6883 0
-6662 -6881 6883 0
6472 6662 -6883 0
6472 6881 -6883 0
6662 6881 -6883 0
-6473 -6663 -6884 0
6473 6663 -6884 0
-6473 6663 6884 0
6473 -6663 6884 0
-6884 -6883 -6851 0
6884 6883 -6851 0
-6884 6883 6851 0
6884 -6883 6851 0
-6473 -6663 6885 0
-6473 -6883 6885 0
-6663 -6883 6885 0
6473 6663 -6885 0
6473 6883 -6885 0
6663 6883 -6885 0
-6474 -6664 -6886 0
6474 6664 -6886 0
-6474 6664 6886 0
6474 -6664 6886 0
-6886 -6885 -6852 0
6886 6885 -6852 0
-6886 6885 6852 0
6886 -6885 6852 0
-6474 -6664 6887 0
-6474 -6885 6887 0
-6664 -6885 6887 0
6474 6664 -6887 0
6474 6885 -6887 0
6664 6885 -6887 0
-6475 -6665 -6888 0
6475 6665 -6888 0
-6475 6665 6888 0
6475 -6665 6888 0
-6888 -6887 -6853 0
6888 6887 -6853 0
-6888 6887 6853 0
6888 -6887 6853 0
-6475 -6665 6889 0
-6475 -6887 6889 0
-6665 -6887 6889 0
6475 6665 -6889 0
6475 6887 -6889 0
6665 6887 -6889 0
-6476 -6666 -6890 0
6476 6666 -6890 0
-6476 6666 6890 0
6476 -6666 6890 0
-6890 -6889 -6854 0
6890 6889 -6854 0
-6890 6889 6854 0
6890 -6889 6854 0
-6476 -6666 6891 0
-6476 -6889 6891 0
-6666 -6889 6891 0
6476 6666 -6891 0
6476 6889 -6891 0
6666 6889 -6891 0
-6477 -6667 -6892 0
6477 6667 -6892 0
-6477 6667 6892 0
6477 -6667 6892 0
-6892 -6891 -6855 0
6892 6891 -6855 0
-6892 6891 6855 0
6892 -6891 6855 0
-6477 -6667 6893 0
-6477 -6891 6893 0
-6667 -6891 6893 0
6477 6667 -6893 0
6477 6891 -6893 0
6667 6891 -6893 0
-6478 -6668 -6894 0
6478 6668 -6894 0
-6478 6668 6894 0
6478 -6668 6894 0
-6894 -6893 -6856 0
6894 6893 -6856 0
-6894 6893 6856 0
6894 -6893 6856 0
-6478 -6668 6895 0
-6478 -6893 6895 0
-6668 -6893 6895 0
6478 6668 -6895 0
6478 6893 -6895 0
6668 6893 -6895 0
-6479 -6669 -6896 0
6479 6669 -6896 0
-6479 6669 6896 0
6479 -6669 6896 0
-6896 -6895 -6857 0
6896 6895 -6857 0
-6896 6895 6857 0
6896 -6895 6857 0
-6479 -6669 6897 0
-6479 -6895 6897 0
-6669 -6895 6897 0
6479 6669 -6897 0
6479 6895 -6897 0
6669 6895 -6897 0
-6480 -6670 -6898 0
6480 6670 -6898 0
-6480 6670 6898 0
6480 -6670 6898 0
-6898 -6897 -6858 0
6898 6897 -6858 0
-6898 6897 6858 0
6898 -6897 6858 0
-6480 -6670 6899 0
-6480 -6897 6899 0
-6670 -6897 6899 0
6480 6670 -6899 0
6480 6897 -6899 0
6670 6897 -6899 0
-6481 -6671 -6900 0
6481 6671 -6900 0
-6481 6671 6900 0
6481 -6671 6900 0
-6900 -6899 -6859 0
6900 6899 -6859 0
-6900 6899 6859 0
6900 -6899 6859 0
-6481 -6671 6901 0
-6481 -6899 6901 0
-6671 -6899 6901 0
6481 6671 -6901 0
6481 6899 -6901 0
6671 6899 -6901 0
-6482 -6672 -6902 0
6482 6672 -6902 0
-6482 6672 6902 0
6482 -6672 6902 0
-6902 -6901 -6860 0
6902 6901 -6860 0
-6902 6901 6860 0
6902 -6901 6860 0
-6482 -6672 6903 0
-6482 -6901 6903 0
-6672 -6901 6903 0
6482 6672 -6903 0
6482 6901 -6903 0
6672 6901 -6903 0
-6483 -6673 -6904 0
6483 6673 -6904 0
-6483 6673 6904 0
6483 -6673 6904 0
-6904 -6903 -6861 0
6904 6903 -6861 0
-6904 6903 6861 0
6904 -6903 6861 0
-6483 -6673 6905 0
-6483 -6903 6905 0
-6673 -6903 6905 0
6483 6673 -6905 0
6483 6903 -6905 0
6673 6903 -6905 0
-6484 -6674 -6906 0
6484 6674 -6906 0
-6484 6674 6906 0
6484 -6674 6906 0
-6906 -6905 -6862 0
6906 6905 -6862 0
-6906 6905 6862 0
6906 -6905 6862 0
-6484 -6674 6907 0
-6484 -6905 6907 0
-6674 -6905 6907 0
6484 6674 -6907 0
6484 6905 -6907 0
6674 6905 -6907 0
-6485 -6675 -6908 0
6485 6675 -6908 0
-6485 6675 6908 0
6485 -6675 6908 0
-6908 -6907 -6863 0
6908 6907 -6863 0
-6908 6907 6863 0
6908 -6907 6863 0
-6485 -6675 6909 0
-6485 -6907 6909 0
-6675 -6907 6909 0
6485 6675 -6909 0
6485 6907 -6909 0
6675 6907 -6909 0
-6486 -6676 -6910 0
6486 6676 -6910 0
-6486 6676 6910 0
6486 -6676 6910 0
-6910 -6909 -6864 0
6910 6909 -6864 0
-6910 6909 6864 0
6910 -6909 6864 0
-6486 -6676 6911 0
-6486 -6909 6911 0
-6676 -6909 6911 0
6486 6676 -6911 0
6486 6909 -6911 0
6676 6909 -6911 0
-6487 -6677 -6912 0
6487 6677 -6912 0
-6487 6677 6912 0
6487 -6677 6912 0
-6912 -6911 -6865 0
6912 6911 -6865 0
-6912 6911 6865 0
6912 -6911 6865 0
-6487 -6677 6913 0
-6487 -6911 6913 0
-6677 -6911 6913 0
6487 6677 -6913 0
6487 6911 -6913 0
6677 6911 -6913 0
-6488 -6678 -6914 0
6488 6678 -6914 0
-6488 6678 6914 0
6488 -6678 6914 0
-6914 -6913 -6866 0
6914 6913 -6866 0
-6914 6913 6866 0
6914 -6913 6866 0
-6488 -6678 6915 0
-6488 -6913 6915 0
-6678 -6913 6915 0
6488 6678 -6915 0
6488 6913 -6915 0
6678 6913 -6915 0
-6489 -6679 -6916 0
6489 6679 -6916 0
-6489 6679 6916 0
6489 -6679 6916 0
-6916 -6915 -6867 0
6916 6915 -6867 0
-6916 6915 6867 0
6916 -6915 6867 0
-6489 -6679 6917 0
-6489 -6915 6917 0
-6679 -6915 6917 0
6489 6679 -6917 0
6489 6915 -6917 0
6679 6915 -6917 0
-6490 -6680 -6918 0
6490 6680 -6918 0
-6490 6680 6918 0
6490 -6680 6918 0
-6918 -6917 -6868 0
6918 6917 -6868 0
-6918 6917 6868 0
6918 -6917 6868 0
-6490 -6680 6919 0
-6490 -6917 6919 0
-6680 -6917 6919 0
6490 6680 -6919 0
6490 6917 -6919 0
6680 6917 -6919 0
-6491 -6681 -6920 0
6491 6681 -6920 0
-6491 6681 6920 0
6491 -6681 6920 0
-6920 -6919 -6869 0
6920 6919 -6869 0
-6920 6919 6869 0
6920 -6919 6869 0
-6491 -6681 6921 0
-6491 -6919 6921 0
-6681 -6919 6921 0
6491 6681 -6921 0
6491 6919 -6921 0
6681 6919 -6921 0
-6492 -6682 -6922 0
6492 6682 -6922 0
-6492 6682 6922 0
6492 -6682 6922 0
-6922 -6921 -6870 0
6922 6921 -6870 0
-6922 6921 6870 0
6922 -6921 6870 0
-6492 -6682 6923 0
-6492 -6921 6923 0
-6682 -6921 6923 0
6492 6682 -6923 0
6492 6921 -6923 0
6682 6921 -6923 0
-6493 -6683 -6924 0
6493 6683 -6924 0
-6493 6683 6924 0
6493 -6683 6924 0
-6924 -6923 -6871 0
6924 6923 -6871 0
-6924 6923 6871 0
6924 -6923 6871 0
-6493 -6683 6925 0
-6493 -6923 6925 0
-6683 -6923 6925 0
6493 6683 -6925 0
6493 6923 -6925 0
6683 6923 -6925 0
-6494 -6684 -6926 0
6494 6684 -6926 0
-6494 6684 6926 0
6494 -6684 6926 0
-6926 -6925 -6872 0
6926 6925 -6872 0
-6926 6925 6872 0
6926 -6925 6872 0
-6494 -6684 6927 0
-6494 -6925 6927 0
-6684 -6925 6927 0
6494 6684 -6927 0
6494 6925 -6927 0
6684 6925 -6927 0
-6495 -6685 -6928 0
6495 6685 -6928 0
-6495 6685 6928 0
6495 -6685 6928 0
-6928 -6927 -6873 0
6928 6927 -6873 0
-6928 6927 6873 0
6928 -6927 6873 0
-6495 -6685 6929 0
-6495 -6927 6929 0
-6685 -6927 6929 0
6495 6685 -6929 0
6495 6927 -6929 0
6685 6927 -6929 0
-6496 -6686 -6930 0
6496 6686 -6930 0
-6496 6686 6930 0
6496 -6686 6930 0
-6930 -6929 -6874 0
6930 6929 -6874 0
-6930 6929 6874 0
6930 -6929 6874 0
-6496 -6686 6931 0
-6496 -6929 6931 0
-6686 -6929 6931 0
6496 6686 -6931 0
6496 6929 -6931 0
6686 6929 -6931 0
-6497 -6687 -6932 0
6497 6687 -6932 0
-6497 6687 6932 0
6497 -6687 6932 0
-6932 -6931 -6875 0
6932 6931 -6875 0
-6932 6931 6875 0
6932 -6931 6875 0
-6497 -6687 6933 0
-6497 -6931 6933 0
-6687 -6931 6933 0
6497 6687 -6933 0
6497 6931 -6933 0
6687 6931 -6933 0
-6498 -6688 -6934 0
6498 6688 -6934 0
-6498 6688 6934 0
6498 -6688 6934 0
-6934 -6933 -6876 0
6934 6933 -6876 0
-6934 6933 6876 0
6934 -6933 6876 0
-6498 -6688 6935 0
-6498 -6933 6935 0
-6688 -6933 6935 0
6498 6688 -6935 0
6498 6933 -6935 0
6688 6933 -6935 0
-6499 -6689 -6936 0
6499 6689 -6936 0
-6499 6689 6936 0
6499 -6689 6936 0
-6936 -6935 -6877 0
6936 6935 -6877 0
-6936 6935 6877 0
6936 -6935 6877 0
-6499 -6689 6937 0
-6499 -6935 6937 0
-6689 -6935 6937 0
6499 6689 -6937 0
6499 6935 -6937 0
6689 6935 -6937 0
-6500 -6690 -6938 0
6500 6690 -6938 0
-6500 6690 6938 0
6500 -6690 6938 0
-6938 -6937 -6878 0
6938 6937 -6878 0
-6938 6937 6878 0
6938 -6937 6878 0
-6500 -6690 6939 0
-6500 -6937 6939 0
-6690 -6937 6939 0
6500 6690 -6939 0
6500 6937 -6939 0
6690 6937 -6939 0
-6501 -6691 -6940 0
6501 6691 -6940 0
-6501 6691 6940 0
6501 -6691 6940 0
-6940 -6939 -6879 0
6940 6939 -6879 0
-6940 6939 6879 0
6940 -6939 6879 0
-6501 -6691 6941 0
-6501 -6939 6941 0
-6691 -6939 6941 0
6501 6691 -6941 0
6501 6939 -6941 0
6691 6939 -6941 0
-6502 -6692 -6942 0
6502 6692 -6942 0
-6502 6692 6942 0
6502 -6692 6942 0
-6942 -6941 -6880 0
6942 6941 -6880 0
-6942 6941 6880 0
6942 -6941 6880 0
6943 0
6944 0
6945 0
-6946 0
-6947 0
6948 0
6949 0
-6950 0
-6951 0
6952 0
6953 0
-6954 0
-6955 0
6956 0
6957 0
6958 0
6959 0
-6960 0
-6961 0
6962 0
-6963 0
-6964 0
-6965 0
-6966 0
-6967 0
6968 0
-6969 0
6970 0
-6971 0
6972 0
6973 0
-6974 0
-6849 -6943 -6975 0
6849 6943 -6975 0
-6849 6943 6975 0
6849 -6943 6975 0
-6849 -6943 7007 0
6849 -7007 0
6943 -7007 0
-6850 -6944 -7008 0
6850 6944 -7008 0
-6850 6944 7008 0
6850 -6944 7008 0
-7008 -7007 -6976 0
7008 7007 -6976 0
-7008 7007 6976 0
7008 -7007 6976 0
-6850 -6944 7009 0
-6850 -7007 7009 0
-6944 -7007 7009 0
6850 6944 -7009 0
6850 7007 -7009 0
6944 7007 -7009 0
-6851 -6945 -7010 0
6851 6945 -7010 0
-6851 6945 7010 0
6851 -6945 7010 0
-7010 -7009 -6977 0
7010 7009 -6977 0
-7010 7009 6977 0
7010 -7009 6977 0
-6851 -6945 7011 0
-6851 -7009 7011 0
-6945 -7009 7011 0
6851 6945 -7011 0
6851 7009 -7011 0
6945 7009 -7011 0
-6852 -6946 -7012 0
6852 6946 -7012 0
-6852 6946 7012 0
6852 -6946 7012 0
-7012 -7011 -6978 0
7012 7011 -6978 0
-7012 7011 6978 0
7012 -7011 6978 0
-6852 -6946 7013 0
-6852 -7011 7013 0
-6946 -7011 7013 0
6852 6946 -7013 0
6852 7011 -7013 0
6946 7011 -7013 0
-6853 -6947 -7014 0
6853 6947 -7014 0
-6853 6947 7014 0
6853 -6947 7014 0
-7014 -7013 -6979 0
7014 7013 -6979 0
-7014 7013 6979 0
7014 -7013 6979 0
-6853 -6947 7015 0
-6853 -7013 7015 0
-6947 -7013 7015 0
6853 6947 -7015 0
6853 7013 -7015 0
6947 7013 -7015 0
-6854 -6948 -7016 0
6854 6948 -7016 0
-6854 6948 7016 0
6854 -6948 7016 0
-7016 -7015 -6980 0
7016 7015 -6980 0
-7016 7015 6980 0
7016 -7015 6980 0
-6854 -6948 7017 0
-6854 -7015 7017 0
-6948 -7015 7017 0
6854 6948 -7017 0
6854 7015 -7017 0
6948 7015 -7017 0
-6855 -6949 -7018 0
6855 6949 -7018 0
-6855 6949 7018 0
6855 -6949 7018 0
-7018 -7017 -6981 0
7018 7017 -6981 0
-7018 7017 6981 0
7018 -7017 6981 0
-6855 -6949 7019 0
-6855 -7017 7019 0
-6949 -7017 7019 0
6855 6949 -7019 0
6855 7017 -7019 0
6949 7017 -7019 0
-6856 -6950 -7020 0
6856 6950 -7020 0
-6856 6950 7020 0
6856 -6950 7020 0
-7020 -7019 -6982 0
7020 7019 -6982 0
-7020 7019 6982 0
7020 -7019 6982 0
-6856 -6950 7021 0
-6856 -7019 7021 0
-6950 -7019 7021 0
6856 6950 -7021 0
6856 7019 -7021 0
6950 7019 -7021 0
-6857 -6951 -7022 0
6857 6951 -7022 0
-6857 6951 7022 0
6857 -6951 7022 0
-7022 -7021 -6983 0
7022 7021 -6983 0
-7022 7021 6983 0
7022 -7021 6983 0
-6857 -6951 7023 0
-6857 -7021 7023 0
-6951 -7021 7023 0
6857 6951 -7023 0
6857 7021 -7023 0
6951 7021 -7023 0
-6858 -6952 -7024 0
6858 6952 -7024 0
-6858 6952 7024 0
6858 -6952 7024 0
-7024 -7023 -6984 0
7024 7023 -6984 0
-7024 7023 6984 0
7024 -7023 6984 0
-6858 -6952 7025 0
-6858 -7023 7025 0
-6952 -7023 7025 0
6858 6952 -7025 0
6858 7023 -7025 0
6952 7023 -7025 0
-6859 -6953 -7026 0
6859 6953 -7026 0
-6859 6953 7026 0
6859 -6953 7026 0
-7026 -7025 -6985 0
7026 7025 -6985 0
-7026 7025 6985 0
7026 -7025 6985 0
-6859 -6953 7027 0
-6859 -7025 7027 0
-6953 -7025 7027 0
6859 6953 -7027 0
6859 7025 -7027 0
6953 7025 -7027 0
-6860 -6954 -7028 0
6860 6954 -7028 0
-6860 6954 7028 0
6860 -6954 7028 0
-7028 -7027 -6986 0
7028 7027 -6986 0
-7028 7027 6986 0
7028 -7027 6986 0
-6860 -6954 7029 0
-6860 -7027 7029 0
-6954 -7027 7029 0
6860 6954 -7029 0
6860 7027 -7029 0
6954 7027 -7029 0
-6861 -6955 -7030 0
6861 6955 -7030 0
-6861 6955 7030 0
6861 -6955 7030 0
-7030 -7029 -6987 0
7030 7029 -6987 0
-7030 7029 6987 0
7030 -7029 6987 0
-6861 -6955 7031 0
-6861 -7029 7031 0
-6955 -7029 7031 0
6861 6955 -7031 0
6861 7029 -7031 0
6955 7029 -7031 0
-6862 -6956 -7032 0
6862 6956 -7032 0
-6862 6956 7032 0
6862 -6956 7032 0
-7032 -7031 -6988 0
7032 7031 -6988 0
-7032 7031 6988 0
7032 -7031 6988 0
-6862 -6956 7033 0
-6862 -7031 7033 0
-6956 -7031 7033 0
6862 6956 -7033 0
6862 7031 -7033 0
6956 7031 -7033 0
-6863 -6957 -7034 0
6863 6957 -7034 0
-6863 6957 7034 0
6863 -6957 7034 0
-7034 -7033 -6989 0
7034 7033 -6989 0
-7034 7033 6989 0
7034 -7033 6989 0
-6863 -6957 7035 0
-6863 -7033 7035 0
-6957 -7033 7035 0
6863 6957 -7035 0
6863 7033 -7035 0
6957 7033 -7035 0
-6864 -6958 -7036 0
6864 6958 -7036 0
-6864 6958 7036 0
6864 -6958 7036 0
-7036 -7035 -6990 0
7036 7035 -6990 0
-7036 7035 6990 0
7036 -7035 6990 0
-6864 -6958 7037 0
-6864 -7035 7037 0
-6958 -7035 7037 0
6864 6958 -7037 0
6864 7035 -7037 0
6958 7035 -7037 0
-6865 -6959 -7038 0
6865 6959 -7038 0
-6865 6959 7038 0
6865 -6959 7038 0
-7038 -7037 -6991 0
7038 7037 -6991 0
-7038 7037 6991 0
7038 -7037 6991 0
-6865 -6959 7039 0
-6865 -7037 7039 0
-6959 -7037 7039 0
6865 6959 -7039 0
6865 7037 -7039 0
6959 7037 -7039 0
-6866 -6960 -7040 0
6866 6960 -7040 0
-6866 6960 7040 0
6866 -6960 7040 0
-7040 -7039 -6992 0
7040 7039 -6992 0
-7040 7039 6992 0
7040 -7039 6992 0
-6866 -6960 7041 0
-6866 -7039 7041 0
-6960 -7039 7041 0
6866 6960 -7041 0
6866 7039 -7041 0
6960 7039 -7041 0
-6867 -6961 -7042 0
6867 6961 -7042 0
-6867 6961 7042 0
6867 -6961 7042 0
-7042 -7041 -6993 0
7042 7041 -6993 0
-7042 7041 6993 0
7042 -7041 6993 0
-6867 -6961 7043 0
-6867 -7041 7043 0
-6961 -7041 7043 0
6867 6961 -7043 0
6867 7041 -7043 0
6961 7041 -7043 0
-6868 -6962 -7044 0
6868 6962 -7044 0
-6868 6962 7044 0
6868 -6962 7044 0
-7044 -7043 -6994 0
7044 7043 -6994 0
-7044 7043 6994 0
7044 -7043 6994 0
-6868 -6962 7045 0
-6868 -7043 7045 0
-6962 -7043 7045 0
6868 6962 -7045 0
6868 7043 -7045 0
6962 7043 -7045 0
-6869 -6963 -7046 0
6869 6963 -7046 0
-6869 6963 7046 0
6869 -6963 7046 0
-7046 -7045 -6995 0
7046 7045 -6995 0
-7046 7045 6995 0
7046 -7045 6995 0
-6869 -6963 7047 0
-6869 -7045 7047 0
-6963 -7045 7047 0
6869 6963 -7047 0
6869 7045 -7047 0
6963 7045 -7047 0
-6870 -6964 -7048 0
6870 6964 -7048 0
-6870 6964 7048 0
6870 -6964 7048 0
-7048 -7047 -6996 0
7048 7047 -6996 0
-7048 7047 6996 0
7048 -7047 6996 0
-6870 -6964 7049 0
-6870 -7047 7049 0
-6964 -7047 7049 0
6870 6964 -7049 0
6870 7047 -7049 0
6964 7047 -7049 0
-6871 -6965 -7050 0
6871 6965 -7050 0
-6871 6965 7050 0
6871 -6965 7050 0
-7050 -7049 -6997 0
7050 7049 -6997 0
-7050 7049 6997 0
7050 -7049 6997 0
-6871 -6965 7051 0
-6871 -7049 7051 0
-6965 -7049 7051 0
6871 6965 -7051 0
6871 7049 -7051 0
6965 7049 -7051 0
-6872 -6966 -7052 0
6872 6966 -7052 0
-6872 6966 7052 0
6872 -6966 7052 0
-7052 -7051 -6998 0
7052 7051 -6998 0
-7052 7051 6998 0
7052 -7051 6998 0
-6872 -6966 7053 0
-6872 -7051 7053 0
-6966 -7051 7053 0
6872 6966 -7053 0
6872 7051 -7053 0
6966 7051 -7053 0
-6873 -6967 -7054 0
6873 6967 -7054 0
-6873 6967 7054 0
6873 -6967 7054 0
-7054 -7053 -6999 0
7054 7053 -6999 0
-7054 7053 6999 0
7054 -7053 6999 0
-6873 -6967 7055 0
-6873 -7053 7055 0
-6967 -7053 7055 0
6873 6967 -7055 0
6873 7053 -7055 0
6967 7053 -7055 0
-6874 -6968 -7056 0
6874 6968 -7056 0
-6874 6968 7056 0
6874 -6968 7056 0
-7056 -7055 -7000 0
7056 7055 -7000 0
-7056 7055 7000 0
7056 -7055 7000 0
-6874 -6968 7057 0
-6874 -7055 7057 0
-6968 -7055 7057 0
6874 6968 -7057 0
6874 7055 -7057 0
6968 7055 -7057 0
-6875 -6969 -7058 0
6875 6969 -7058 0
-6875 6969 7058 0
6875 -6969 7058 0
-7058 -7057 -7001 0
7058 7057 -7001 0
-7058 7057 7001 0
7058 -7057 7001 0
-6875 -6969 7059 0
-6875 -7057 7059 0
-6969 -7057 7059 0
6875 6969 -7059 0
6875 7057 -7059 0
6969 7057 -7059 0
-6876 -6970 -7060 0
6876 6970 -7060 0
-6876 6970 7060 0
6876 -6970 7060 0
-7060 -7059 -7002 0
7060 7059 -7002 0
-7060 7059 7002 0
7060 -7059 7002 0
-6876 -6970 7061 0
-6876 -7059 7061 0
-6970 -7059 7061 0
6876 6970 -7061 0
6876 7059 -7061 0
6970 7059 -7061 0
-6877 -6971 -7062 0
6877 6971 -7062 0
-6877 6971 7062 0
6877 -6971 7062 0
-7062 -7061 -7003 0
7062 7061 -7003 0
-7062 7061 7003 0
7062 -7061 7003 0
-6877 -6971 7063 0
-6877 -7061 7063 0
-6971 -7061 7063 0
6877 6971 -7063 0
6877 7061 -7063 0
6971 7061 -7063 0
-6878 -6972 -7064 0
6878 6972 -7064 0
-6878 6972 7064 0
6878 -6972 7064 0
-7064 -7063 -7004 0
7064 7063 -7004 0
-7064 7063 7004 0
7064 -7063 7004 0
-6878 -6972 7065 0
-6878 -7063 7065 0
-6972 -7063 7065 0
6878 6972 -7065 0
6878 7063 -7065 0
6972 7063 -7065 0
-6879 -6973 -7066 0
6879 6973 -7066 0
-6879 6973 7066 0
6879 -6973 7066 0
-7066 -7065 -7005 0
7066 7065 -7005 0
-7066 7065 7005 0
7066 -7065 7005 0
-6879 -6973 7067 0
-6879 -7065 7067 0
-6973 -7065 7067 0
6879 6973 -7067 0
6879 7065 -7067 0
6973 7065 -7067 0
-6880 -6974 -7068 0
6880 6974 -7068 0
-6880 6974 7068 0
6880 -6974 7068 0
-7068 -7067 -7006 0
7068 7067 -7006 0
-7068 7067 7006 0
7068 -7067 7006 0
7069 0
-7070 0
7071 0
-7072 0
-7073 0
-7074 0
-7075 0
7076 0
-7077 0
7078 0
7079 0
7080 0
-7081 0
7082 0
-7083 0
7084 0
7085 0
7086 0
7087 0
-7088 0
-7089 0
7090 0
7091 0
-7092 0
7093 0
7094 0
-7095 0
7096 0
7097 0
7098 0
-7099 0
7100 0
-5967 -7069 -7101 0
5967 7069 -7101 0
-5967 7069 7101 0
5967 -7069 7101 0
-5967 -7069 7133 0
5967 -7133 0
7069 -7133 0
-5968 -7070 -7134 0
5968 7070 -7134 0
-5968 7070 7134 0
5968 -7070 7134 0
-7134 -7133 -7102 0
7134 7133 -7102 0
-7134 7133 7102 0
7134 -7133 7102 0
-5968 -7070 7135 0
-5968 -7133 7135 0
-7070 -7133 7135 0
5968 7070 -7135 0
5968 7133 -7135 0
7070 7133 -7135 0
-5969 -7071 -7136 0
5969 7071 -7136 0
-5969 7071 7136 0
5969 -7071 7136 0
-7136 -7135 -7103 0
7136 7135 -7103 0
-7136 7135 7103 0
7136 -7135 7103 0
-5969 -7071 7137 0
-5969 -7135 7137 0
-7071 -7135 7137 0
5969 7071 -7137 0
5969 7135 -7137 0
7071 7135 -7137 0
-5970 -7072 -7138 0
5970 7072 -7138 0
-5970 7072 7138 0
5970 -7072 7138 0
-7138 -7137 -7104 0
7138 7137 -7104 0
-7138 7137 7104 0
7138 -7137 7104 0
-5970 -7072 7139 0
-5970 -7137 7139 0
-7072 -7137 7139 0
5970 7072 -7139 0
5970 7137 -7139 0
7072 7137 -7139 0
-5971 -7073 -7140 0
5971 7073 -7140 0
-5971 7073 7140 0
5971 -7073 7140 0
-7140 -7139 -7105 0
7140 7139 -7105 0
-7140 7139 7105 0
7140 -7139 7105 0
-5971 -7073 7141 0
-5971 -7139 7141 0
-7073 -7139 7141 0
5971 7073 -7141 0
5971 7139 -7141 0
7073 7139 -7141 0
-5972 -7074 -7142 0
5972 7074 -7142 0
-5972 7074 7142 0
5972 -7074 7142 0
-7142 -7141 -7106 0
7142 7141 -7106 0
-7142 7141 7106 0
7142 -7141 7106 0
-5972 -7074 7143 0
-5972 -7141 7143 0
-7074 -7141 7143 0
5972 7074 -7143 0
5972 7141 -7143 0
7074 7141 -7143 0
-5973 -7075 -7144 0
5973 7075 -7144 0
-5973 7075 7144 0
5973 -7075 7144 0
-7144 -7143 -7107 0
7144 7143 -7107 0
-7144 7143 7107 0
7144 -7143 7107 0
-5973 -7075 7145 0
-5973 -7143 7145 0
-7075 -7143 7145 0
5973 7075 -7145 0
5973 7143 -7145 0
7075 7143 -7145 0
-5974 -7076 -7146 0
5974 7076 -7146 0
-5974 7076 7146 0
5974 -7076 7146 0
-7146 -7145 -7108 0
7146 7145 -7108 0
-7146 7145 7108 0
7146 -7145 7108 0
-5974 -7076 7147 0
-5974 -7145 7147 0
-7076 -7145 7147 0
5974 7076 -7147 0
5974 7145 -7147 0
7076 7145 -7147 0
-5975 -7077 -7148 0
5975 7077 -7148 0
-5975 7077 7148 0
5975 -7077 7148 0
-7148 -7147 -7109 0
7148 7147 -7109 0
-7148 7147 7109 0
7148 -7147 7109 0
-5975 -7077 7149 0
-5975 -7147 7149 0
-7077 -7147 7149 0
5975 7077 -7149 0
5975 7147 -7149 0
7077 7147 -7149 0
-5976 -7078 -7150 0
5976 7078 -7150 0
-5976 7078 7150 0
5976 -7078 7150 0
-7150 -7149 -7110 0
7150 7149 -7110 0
-7150 7149 7110 0
7150 -7149 7110 0
-5976 -7078 7151 0
-5976 -7149 7151 0
-7078 -7149 7151 0
5976 7078 -7151 0
5976 7149 -7151 0
7078 7149 -7151 0
-5977 -7079 -7152 0
5977 7079 -7152 0
-5977 7079 7152 0
5977 -7079 7152 0
-7152 -7151 -7111 0
7152 7151 -7111 0
-7152 7151 7111 0
7152 -7151 7111 0
-5977 -7079 7153 0
-5977 -7151 7153 0
-7079 -7151 7153 0
5977 7079 -7153 0
5977 7151 -7153 0
7079 7151 -7153 0
-5978 -7080 -7154 0
5978 7080 -7154 0
-5978 7080 7154 0
5978 -7080 7154 0
-7154 -7153 -7112 0
7154 7153 -7112 0
-7154 7153 7112 0
7154 -7153 7112 0
-5978 -7080 7155 0
-5978 -7153 7155 0
-7080 -7153 7155 0
5978 7080 -7155 0
5978 7153 -7155 0
7080 7153 -7155 0
-5979 -7081 -7156 0
5979 7081 -7156 0
-5979 7081 7156 0
5979 -7081 7156 0
-7156 -7155 -7113 0
7156 7155 -7113 0
-7156 7155 7113 0
7156 -7155 7113 0
-5979 -7081 7157 0
-5979 -7155 7157 0
-7081 -7155 7157 0
5979 7081 -7157 0
5979 7155 -7157 0
7081 7155 -7157 0
-5980 -7082 -7158 0
5980 7082 -7158 0
-5980 7082 7158 0
5980 -7082 7158 0
-7158 -7157 -7114 0
7158 7157 -7114 0
-7158 7157 7114 0
7158 -7157 7114 0
-5980 -7082 7159 0
-5980 -7157 7159 0
-7082 -7157 7159 0
5980 7082 -7159 0
5980 7157 -7159 0
7082 7157 -7159 0
-5981 -7083 -7160 0
5981 7083 -7160 0
-5981 7083 7160 0
5981 -7083 7160 0
-7160 -7159 -7115 0
7160 7159 -7115 0
-7160 7159 7115 0
7160 -7159 7115 0
-5981 -7083 7161 0
-5981 -7159 7161 0
-7083 -7159 7161 0
5981 7083 -7161 0
5981 7159 -7161 0
7083 7159 -7161 0
-5982 -7084 -7162 0
5982 7084 -7162 0
-5982 7084 7162 0
5982 -7084 7162 0
-7162 -7161 -7116 0
7162 7161 -7116 0
-7162 7161 7116 0
7162 -7161 7116 0
-5982 -7084 7163 0
-5982 -7161 7163 0
-7084 -7161 7163 0
5982 7084 -7163 0
5982 7161 -7163 0
7084 7161 -7163 0
-5983 -7085 -7164 0
5983 7085 -7164 0
-5983 7085 7164 0
5983 -7085 7164 0
-7164 -7163 -7117 0
7164 7163 -7117 0
-7164 7163 7117 0
7164 -7163 7117 0
-5983 -7085 7165 0
-5983 -7163 7165 0
-7085 -7163 7165 0
5983 7085 -7165 0
5983 7163 -7165 0
7085 7163 -7165 0
-5984 -7086 -7166 0
5984 7086 -7166 0
-5984 7086 7166 0
5984 -7086 7166 0
-7166 -7165 -7118 0
7166 7165 -7118 0
-7166 7165 7118 0
7166 -7165 7118 0
-5984 -7086 7167 0
-5984 -7165 7167 0
-7086 -7165 7167 0
5984 7086 -7167 0
5984 7165 -7167 0
7086 7165 -7167 0
-5985 -7087 -7168 0
5985 7087 -7168 0
-5985 7087 7168 0
5985 -7087 7168 0
-7168 -7167 -7119 0
7168 7167 -7119 0
-7168 7167 7119 0
7168 -7167 7119 0
-5985 -7087 7169 0
-5985 -7167 7169 0
-7087 -7167 7169 0
5985 7087 -7169 0
5985 7167 -7169 0
7087 7167 -7169 0
-5986 -7088 -7170 0
5986 7088 -7170 0
-5986 7088 7170 0
5986 -7088 7170 0
-7170 -7169 -7120 0
7170 7169 -7120 0
-7170 7169 7120 0
7170 -7169 7120 0
-5986 -7088 7171 0
-5986 -7169 7171 0
-7088 -7169 7171 0
5986 7088 -7171 0
5986 7169 -7171 0
7088 7169 -7171 0
-5987 -7089 -7172 0
5987 7089 -7172 0
-5987 7089 7172 0
5987 -7089 7172 0
-7172 -7171 -7121 0
7172 7171 -7121 0
-7172 7171 7121 0
7172 -7171 7121 0
-5987 -7089 7173 0
-5987 -7171 7173 0
-7089 -7171 7173 0
5987 7089 -7173 0
5987 7171 -7173 0
7089 7171 -7173 0
-5988 -7090 -7174 0
5988 7090 -7174 0
-5988 7090 7174 0
5988 -7090 7174 0
-7174 -7173 -7122 0
7174 7173 -7122 0
-7174 7173 7122 0
7174 -7173 7122 0
-5988 -7090 7175 0
-5988 -7173 7175 0
-7090 -7173 7175 0
5988 7090 -7175 0
5988 7173 -7175 0
7090 7173 -7175 0
-5989 -7091 -7176 0
5989 7091 -7176 0
-5989 7091 7176 0
5989 -7091 7176 0
-7176 -7175 -7123 0
7176 7175 -7123 0
-7176 7175 7123 0
7176 -7175 7123 0
-5989 -7091 7177 0
-5989 -7175 7177 0
-7091 -7175 7177 0
5989 7091 -7177 0
5989 7175 -7177 0
7091 7175 -7177 0
-5990 -7092 -7178 0
5990 7092 -7178 0
-5990 7092 7178 0
5990 -7092 7178 0
-7178 -7177 -7124 0
7178 7177 -7124 0
-7178 7177 7124 0
7178 -7177 7124 0
-5990 -7092 7179 0
-5990 -7177 7179 0
-7092 -7177 7179 0
5990 7092 -7179 0
5990 7177 -7179 0
7092 7177 -7179 0
-5991 -7093 -7180 0
5991 7093 -7180 0
-5991 7093 7180 0
5991 -7093 7180 0
-7180 -7179 -7125 0
7180 7179 -7125 0
-7180 7179 7125 0
7180 -7179 7125 0
-5991 -7093 7181 0
-5991 -7179 7181 0
-7093 -7179 7181 0
5991 7093 -7181 0
5991 7179 -7181 0
7093 7179 -7181 0
-5992 -7094 -7182 0
5992 7094 -7182 0
-5992 7094 7182 0
5992 -7094 7182 0
-7182 -7181 -7126 0
7182 7181 -7126 0
-7182 7181 7126 0
7182 -7181 7126 0
-5992 -7094 7183 0
-5992 -7181 7183 0
-7094 -7181 7183 0
5992 7094 -7183 0
5992 7181 -7183 0
7094 7181 -7183 0
-5993 -7095 -7184 0
5993 7095 -7184 0
-5993 7095 7184 0
5993 -7095 7184 0
-7184 -7183 -7127 0
7184 7183 -7127 0
-7184 7183 7127 0
7184 -7183 7127 0
-5993 -7095 7185 0
-5993 -7183 7185 0
-7095 -7183 7185 0
5993 7095 -7185 0
5993 7183 -7185 0
7095 7183 -7185 0
-5994 -7096 -7186 0
5994 7096 -7186 0
-5994 7096 7186 0
5994 -7096 7186 0
-7186 -7185 -7128 0
7186 7185 -7128 0
-7186 7185 7128 0
7186 -7185 7128 0
-5994 -7096 7187 0
-5994 -7185 7187 0
-7096 -7185 7187 0
5994 7096 -7187 0
5994 7185 -7187 0
7096 7185 -7187 0
-5995 -7097 -7188 0
5995 7097 -7188 0
-5995 7097 7188 0
5995 -7097 7188 0
-7188 -7187 -7129 0
7188 7187 -7129 0
-7188 7187 7129 0
7188 -7187 7129 0
-5995 -7097 7189 0
-5995 -7187 7189 0
-7097 -7187 7189 0
5995 7097 -7189 0
5995 7187 -7189 0
7097 7187 -7189 0
-5996 -7098 -7190 0
5996 7098 -7190 0
-5996 7098 7190 0
5996 -7098 7190 0
-7190 -7189 -7130 0
7190 7189 -7130 0
-7190 7189 7130 0
7190 -7189 7130 0
-5996 -7098 7191 0
-5996 -7189 7191 0
-7098 -7189 7191 0
5996 7098 -7191 0
5996 7189 -7191 0
7098 7189 -7191 0
-5997 -7099 -7192 0
5997 7099 -7192 0
-5997 7099 7192 0
5997 -7099 7192 0
-7192 -7191 -7131 0
7192 7191 -7131 0
-7192 7191 7131 0
7192 -7191 7131 0
-5997 -7099 7193 0
-5997 -7191 7193 0
-7099 -7191 7193 0
5997 7099 -7193 0
5997 7191 -7193 0
7099 7191 -7193 0
-5998 -7100 -7194 0
5998 7100 -7194 0
-5998 7100 7194 0
5998 -7100 7194 0
-7194 -7193 -7132 0
7194 7193 -7132 0
-7194 7193 7132 0
7194 -7193 7132 0
-7195 0
7196 0
-7197 0
-7198 0
7199 0
7200 0
7201 0
-7202 0
7203 0
7204 0
-7205 0
-7206 0
7207 0
7208 0
7209 0
7210 0
-7211 0
7212 0
7213 0
7214 0
-7215 0
7216 0
7217 0
-7218 0
-7219 0
-7220 0
7221 0
7222 0
7223 0
7224 0
-7225 0
-7226 0
-5085 -7195 -7227 0
5085 7195 -7227 0
-5085 7195 7227 0
5085 -7195 7227 0
-5085 -7195 7259 0
5085 -7259 0
7195 -7259 0
-5086 -7196 -7260 0
5086 7196 -7260 0
-5086 7196 7260 0
5086 -7196 7260 0
-7260 -7259 -7228 0
7260 7259 -7228 0
-7260 7259 7228 0
7260 -7259 7228 0
-5086 -7196 7261 0
-5086 -7259 7261 0
-7196 -7259 7261 0
5086 7196 -7261 0
5086 7259 -7261 0
7196 7259 -7261 0
-5087 -7197 -7262 0
5087 7197 -7262 0
-5087 7197 7262 0
5087 -7197 7262 0
-7262 -7261 -7229 0
7262 7261 -7229 0
-7262 7261 7229 0
7262 -7261 7229 0
-5087 -7197 7263 0
-5087 -7261 7263 0
-7197 -7261 7263 0
5087 7197 -7263 0
5087 7261 -7263 0
7197 7261 -7263 0
-5088 -7198 -7264 0
5088 7198 -7264 0
-5088 7198 7264 0
5088 -7198 7264 0
-7264 -7263 -7230 0
7264 7263 -7230 0
-7264 7263 7230 0
7264 -7263 7230 0
-5088 -7198 7265 0
-5088 -7263 7265 0
-7198 -7263 7265 0
5088 7198 -7265 0
5088 7263 -7265 0
7198 7263 -7265 0
-5089 -7199 -7266 0
5089 7199 -7266 0
-5089 7199 7266 0
5089 -7199 7266 0
-7266 -7265 -7231 0
7266 7265 -7231 0
-7266 7265 7231 0
7266 -7265 7231 0
-5089 -7199 7267 0
-5089 -7265 7267 0
-7199 -7265 7267 0
5089 7199 -7267 0
5089 7265 -7267 0
7199 7265 -7267 0
-5090 -7200 -7268 0
5090 7200 -7268 0
-5090 7200 7268 0
5090 -7200 7268 0
-7268 -7267 -7232 0
7268 7267 -7232 0
-7268 7267 7232 0
7268 -7267 7232 0
-5090 -7200 7269 0
-5090 -7267 7269 0
-7200 -7267 7269 0
5090 7200 -7269 0
5090 7267 -7269 0
7200 7267 -7269 0
-5091 -7201 -7270 0
5091 7201 -7270 0
-5091 7201 7270 0
5091 -7201 7270 0
-7270 -7269 -7233 0
7270 7269 -7233 0
-7270 7269 7233 0
7270 -7269 7233 0
-5091 -7201 7271 0
-5091 -7269 7271 0
-7201 -7269 7271 0
5091 7201 -7271 0
5091 7269 -7271 0
7201 7269 -7271 0
-5092 -7202 -7272 0
5092 7202 -7272 0
-5092 7202 7272 0
5092 -7202 7272 0
-7272 -7271 -7234 0
7272 7271 -7234 0
-7272 7271 7234 0
7272 -7271 7234 0
-5092 -7202 7273 0
-5092 -7271 7273 0
-7202 -7271 7273 0
5092 7202 -7273 0
5092 7271 -7273 0
7202 7271 -7273 0
-5093 -7203 -7274 0
5093 7203 -7274 0
-5093 7203 7274 0
5093 -7203 7274 0
-7274 -7273 -7235 0
7274 7273 -7235 0
-7274 7273 7235 0
7274 -7273 7235 0
-5093 -7203 7275 0
-5093 -7273 7275 0
-7203 -7273 7275 0
5093 7203 -7275 0
5093 7273 -7275 0
7203 7273 -7275 0
-5094 -7204 -7276 0
5094 7204 -7276 0
-5094 7204 7276 0
5094 -7204 7276 0
-7276 -7275 -7236 0
7276 7275 -7236 0
-7276 7275 7236 0
7276 -7275 7236 0
-5094 -7204 7277 0
-5094 -7275 7277 0
-7204 -7275 7277 0
5094 7204 -7277 0
5094 7275 -7277 0
7204 7275 -7277 0
-5095 -7205 -7278 0
5095 7205 -7278 0
-5095 7205 7278 0
5095 -7205 7278 0
-7278 -7277 -7237 0
7278 7277 -7237 0
-7278 7277 7237 0
7278 -7277 7237 0
-5095 -7205 7279 0
-5095 -7277 7279 0
-7205 -7277 7279 0
5095 7205 -7279 0
5095 7277 -7279 0
7205 7277 -7279 0
-5096 -7206 -7280 0
5096 7206 -7280 0
-5096 7206 7280 0
5096 -7206 7280 0
-7280 -7279 -7238 0
7280 7279 -7238 0
-7280 7279 7238 0
7280 -7279 7238 0
-5096 -7206 7281 0
-5096 -7279 7281 0
-7206 -7279 7281 0
5096 7206 -7281 0
5096 7279 -7281 0
7206 7279 -7281 0
-5097 -7207 -7282 0
5097 7207 -7282 0
-5097 7207 7282 0
5097 -7207 7282 0
-7282 -7281 -7239 0
7282 7281 -7239 0
-7282 7281 7239 0
7282 -7281 7239 0
-5097 -7207 7283 0
-5097 -7281 7283 0
-7207 -7281 7283 0
5097 7207 -7283 0
5097 7281 -7283 0
7207 7281 -7283 0
-5098 -7208 -7284 0
5098 7208 -7284 0
-5098 7208 7284 0
5098 -7208 7284 0
-7284 -7283 -7240 0
7284 7283 -7240 0
-7284 7283 7240 0
7284 -7283 7240 0
-5098 -7208 7285 0
-5098 -7283 7285 0
-7208 -7283 7285 0
5098 7208 -7285 0
5098 7283 -7285 0
7208 7283 -7285 0
-5099 -7209 -7286 0
5099 7209 -7286 0
-5099 7209 7286 0
5099 -7209 7286 0
-7286 -7285 -7241 0
7286 7285 -7241 0
-7286 7285 7241 0
7286 -7285 7241 0
-5099 -7209 7287 0
-5099 -7285 7287 0
-7209 -7285 7287 0
5099 7209 -7287 0
5099 7285 -7287 0
7209 7285 -7287 0
-5100 -7210 -7288 0
5100 7210 -7288 0
-5100 7210 7288 0
5100 -7210 7288 0
-7288 -7287 -7242 0
7288 7287 -7242 0
-7288 7287 7242 0
7288 -7287 7242 0
-5100 -7210 7289 0
-5100 -7287 7289 0
-7210 -7287 7289 0
5100 7210 -7289 0
5100 7287 -7289 0
7210 7287 -7289 0
-5101 -7211 -7290 0
5101 7211 -7290 0
-5101 7211 7290 0
5101 -7211 7290 0
-7290 -7289 -7243 0
7290 7289 -7243 0
-7290 7289 7243 0
7290 -7289 7243 0
-5101 -7211 7291 0
-5101 -7289 7291 0
-7211 -7289 7291 0
5101 7211 -7291 0
5101 7289 -7291 0
7211 7289 -7291 0
-5102 -7212 -7292 0
5102 7212 -7292 0
-5102 7212 7292 0
5102 -7212 7292 0
-7292 -7291 -7244 0
7292 7291 -7244 0
-7292 7291 7244 0
7292 -7291 7244 0
-5102 -7212 7293 0
-5102 -7291 7293 0
-7212 -7291 7293 0
5102 7212 -7293 0
5102 7291 -7293 0
7212 7291 -7293 0
-5103 -7213 -7294 0
5103 7213 -7294 0
-5103 7213 7294 0
5103 -7213 7294 0
-7294 -7293 -7245 0
7294 7293 -7245 0
-7294 7293 7245 0
7294 -7293 7245 0
-5103 -7213 7295 0
-5103 -7293 7295 0
-7213 -7293 7295 0
5103 7213 -7295 0
5103 7293 -7295 0
7213 7293 -7295 0
-5104 -7214 -7296 0
5104 7214 -7296 0
-5104 7214 7296 0
5104 -7214 7296 0
-7296 -7295 -7246 0
7296 7295 -7246 0
-7296 7295 7246 0
7296 -7295 7246 0
-5104 -7214 7297 0
-5104 -7295 7297 0
-7214 -7295 7297 0
5104 7214 -7297 0
5104 7295 -7297 0
7214 7295 -7297 0
-5105 -7215 -7298 0
5105 7215 -7298 0
-5105 7215 7298 0
5105 -7215 7298 0
-7298 -7297 -7247 0
7298 7297 -7247 0
-7298 7297 7247 0
7298 -7297 7247 0
-5105 -7215 7299 0
-5105 -7297 7299 0
-7215 -7297 7299 0
5105 7215 -7299 0
5105 7297 -7299 0
7215 7297 -7299 0
-5106 -7216 -7300 0
5106 7216 -7300 0
-5106 7216 7300 0
5106 -7216 7300 0
-7300 -7299 -7248 0
7300 7299 -7248 0
-7300 7299 7248 0
7300 -7299 7248 0
-5106 -7216 7301 0
-5106 -7299 7301 0
-7216 -7299 7301 0
5106 7216 -7301 0
5106 7299 -7301 0
7216 7299 -7301 0
-5107 -7217 -7302 0
5107 7217 -7302 0
-5107 7217 7302 0
5107 -7217 7302 0
-7302 -7301 -7249 0
7302 7301 -7249 0
-7302 7301 7249 0
7302 -7301 7249 0
-5107 -7217 7303 0
-5107 -7301 7303 0
-7217 -7301 7303 0
5107 7217 -7303 0
5107 7301 -7303 0
7217 7301 -7303 0
-5108 -7218 -7304 0
5108 7218 -7304 0
-5108 7218 7304 0
5108 -7218 7304 0
-7304 -7303 -7250 0
7304 7303 -7250 0
-7304 7303 7250 0
7304 -7303 7250 0
-5108 -7218 7305 0
-5108 -7303 7305 0
-7218 -7303 7305 0
5108 7218 -7305 0
5108 7303 -7305 0
7218 7303 -7305 0
-5109 -7219 -7306 0
5109 7219 -7306 0
-5109 7219 7306 0
5109 -7219 7306 0
-7306 -7305 -7251 0
7306 7305 -7251 0
-7306 7305 7251 0
7306 -7305 7251 0
-5109 -7219 7307 0
-5109 -7305 7307 0
-7219 -7305 7307 0
5109 7219 -7307 0
5109 7305 -7307 0
7219 7305 -7307 0
-5110 -7220 -7308 0
5110 7220 -7308 0
-5110 7220 7308 0
5110 -7220 7308 0
-7308 -7307 -7252 0
7308 7307 -7252 0
-7308 7307 7252 0
7308 -7307 7252 0
-5110 -7220 7309 0
-5110 -7307 7309 0
-7220 -7307 7309 0
5110 7220 -7309 0
5110 7307 -7309 0
7220 7307 -7309 0
-5111 -7221 -7310 0
5111 7221 -7310 0
-5111 7221 7310 0
5111 -7221 7310 0
-7310 -7309 -7253 0
7310 7309 -7253 0
-7310 7309 7253 0
7310 -7309 7253 0
-5111 -7221 7311 0
-5111 -7309 7311 0
-7221 -7309 7311 0
5111 7221 -7311 0
5111 7309 -7311 0
7221 7309 -7311 0
-5112 -7222 -7312 0
5112 7222 -7312 0
-5112 7222 7312 0
5112 -7222 7312 0
-7312 -7311 -7254 0
7312 7311 -7254 0
-7312 7311 7254 0
7312 -7311 7254 0
-5112 -7222 7313 0
-5112 -7311 7313 0
-7222 -7311 7313 0
5112 7222 -7313 0
5112 7311 -7313 0
7222 7311 -7313 0
-5113 -7223 -7314 0
5113 7223 -7314 0
-5113 7223 7314 0
5113 -7223 7314 0
-7314 -7313 -7255 0
7314 7313 -7255 0
-7314 7313 7255 0
7314 -7313 7255 0
-5113 -7223 7315 0
-5113 -7313 7315 0
-7223 -7313 7315 0
5113 7223 -7315 0
5113 7313 -7315 0
7223 7313 -7315 0
-5114 -7224 -7316 0
5114 7224 -7316 0
-5114 7224 7316 0
5114 -7224 7316 0
-7316 -7315 -7256 0
7316 7315 -7256 0
-7316 7315 7256 0
7316 -7315 7256 0
-5114 -7224 7317 0
-5114 -7315 7317 0
-7224 -7315 7317 0
5114 7224 -7317 0
5114 7315 -7317 0
7224 7315 -7317 0
-5115 -7225 -7318 0
5115 7225 -7318 0
-5115 7225 7318 0
5115 -7225 7318 0
-7318 -7317 -7257 0
7318 7317 -7257 0
-7318 7317 7257 0
7318 -7317 7257 0
-5115 -7225 7319 0
-5115 -7317 7319 0
-7225 -7317 7319 0
5115 7225 -7319 0
5115 7317 -7319 0
7225 7317 -7319 0
-5116 -7226 -7320 0
5116 7226 -7320 0
-5116 7226 7320 0
5116 -7226 7320 0
-7320 -7319 -7258 0
7320 7319 -7258 0
-7320 7319 7258 0
7320 -7319 7258 0
-7321 0
7322 0
-7323 0
7324 0
7325 0
7326 0
-7327 0
-7328 0
7329 0
-7330 0
7331 0
-7332 0
7333 0
7334 0
7335 0
7336 0
7337 0
7338 0
7339 0
7340 0
-7341 0
-7342 0
7343 0
-7344 0
7345 0
-7346 0
7347 0
-7348 0
-7349 0
7350 0
-7351 0
7352 0
-4203 -7321 -7353 0
4203 7321 -7353 0
-4203 7321 7353 0
4203 -7321 7353 0
-4203 -7321 7385 0
4203 -7385 0
7321 -7385 0
-4204 -7322 -7386 0
4204 7322 -7386 0
-4204 7322 7386 0
4204 -7322 7386 0
-7386 -7385 -7354 0
7386 7385 -7354 0
-7386 7385 7354 0
7386 -7385 7354 0
-4204 -7322 7387 0
-4204 -7385 7387 0
-7322 -7385 7387 0
4204 7322 -7387 0
4204 7385 -7387 0
7322 7385 -7387 0
-4205 -7323 -7388 0
4205 7323 -7388 0
-4205 7323 7388 0
4205 -7323 7388 0
-7388 -7387 -7355 0
7388 7387 -7355 0
-7388 7387 7355 0
7388 -7387 7355 0
-4205 -7323 7389 0
-4205 -7387 7389 0
-7323 -7387 7389 0
4205 7323 -7389 0
4205 7387 -7389 0
7323 7387 -7389 0
-4206 -7324 -7390 0
4206 7324 -7390 0
-4206 7324 7390 0
4206 -7324 7390 0
-7390 -7389 -7356 0
7390 7389 -7356 0
-7390 7389 7356 0
7390 -7389 7356 0
-4206 -7324 7391 0
-4206 -7389 7391 0
-7324 -7389 7391 0
4206 7324 -7391 0
4206 7389 -7391 0
7324 7389 -7391 0
-4207 -7325 -7392 0
4207 7325 -7392 0
-4207 7325 7392 0
4207 -7325 7392 0
-7392 -7391 -7357 0
7392 7391 -7357 0
-7392 7391 7357 0
7392 -7391 7357 0
-4207 -7325 7393 0
-4207 -7391 7393 0
-7325 -7391 7393 0
4207 7325 -7393 0
4207 7391 -7393 0
7325 7391 -7393 0
-4208 -7326 -7394 0
4208 7326 -7394 0
-4208 7326 7394 0
4208 -7326 7394 0
-7394 -7393 -7358 0
7394 7393 -7358 0
-7394 7393 7358 0
7394 -7393 7358 0
-4208 -7326 7395 0
-4208 -7393 7395 0
-7326 -7393 7395 0
4208 7326 -7395 0
4208 7393 -7395 0
7326 7393 -7395 0
-4209 -7327 -7396 0
4209 7327 -7396 0
-4209 7327 7396 0
4209 -7327 7396 0
-7396 -7395 -7359 0
7396 7395 -7359 0
-7396 7395 7359 0
7396 -7395 7359 0
-4209 -7327 7397 0
-4209 -7395 7397 0
-7327 -7395 7397 0
4209 7327 -7397 0
4209 7395 -7397 0
7327 7395 -7397 0
-4210 -7328 -7398 0
4210 7328 -7398 0
-4210 7328 7398 0
4210 -7328 7398 0
-7398 -7397 -7360 0
7398 7397 -7360 0
-7398 7397 7360 0
7398 -7397 7360 0
-4210 -7328 7399 0
-4210 -7397 7399 0
-7328 -7397 7399 0
4210 7328 -7399 0
4210 7397 -7399 0
7328 7397 -7399 0
-4211 -7329 -7400 0
4211 7329 -7400 0
-4211 7329 7400 0
4211 -7329 7400 0
-7400 -7399 -7361 0
7400 7399 -7361 0
-7400 7399 7361 0
7400 -7399 7361 0
-4211 -7329 7401 0
-4211 -7399 7401 0
-7329 -7399 7401 0
4211 7329 -7401 0
4211 7399 -7401 0
7329 7399 -7401 0
-4212 -7330 -7402 0
4212 7330 -7402 0
-4212 7330 7402 0
4212 -7330 7402 0
-7402 -7401 -7362 0
7402 7401 -7362 0
-7402 7401 7362 0
7402 -7401 7362 0
-4212 -7330 7403 0
-4212 -7401 7403 0
-7330 -7401 7403 0
4212 7330 -7403 0
4212 7401 -7403 0
7330 7401 -7403 0
-4213 -7331 -7404 0
4213 7331 -7404 0
-4213 7331 7404 0
4213 -7331 7404 0
-7404 -7403 -7363 0
7404 7403 -7363 0
-7404 7403 7363 0
7404 -7403 7363 0
-4213 -7331 7405 0
-4213 -7403 7405 0
-7331 -7403 7405 0
4213 7331 -7405 0
4213 7403 -7405 0
7331 7403 -7405 0
-4214 -7332 -7406 0
4214 7332 -7406 0
-4214 7332 7406 0
4214 -7332 7406 0
-7406 -7405 -7364 0
7406 7405 -7364 0
-7406 7405 7364 0
7406 -7405 7364 0
-4214 -7332 7407 0
-4214 -7405 7407 0
-7332 -7405 7407 0
4214 7332 -7407 0
4214 7405 -7407 0
7332 7405 -7407 0
-4215 -7333 -7408 0
4215 7333 -7408 0
-4215 7333 7408 0
4215 -7333 7408 0
-7408 -7407 -7365 0
7408 7407 -7365 0
-7408 7407 7365 0
7408 -7407 7365 0
-4215 -7333 7409 0
-4215 -7407 7409 0
-7333 -7407 7409 0
4215 7333 -7409 0
4215 7407 -7409 0
7333 7407 -7409 0
-4216 -7334 -7410 0
4216 7334 -7410 0
-4216 7334 7410 0
4216 -7334 7410 0
-7410 -7409 -7366 0
7410 7409 -7366 0
-7410 7409 7366 0
7410 -7409 7366 0
-4216 -7334 7411 0
-4216 -7409 7411 0
-7334 -7409 7411 0
4216 7334 -7411 0
4216 7409 -7411 0
7334 7409 -7411 0
-4217 -7335 -7412 0
4217 7335 -7412 0
-4217 7335 7412 0
4217 -7335 7412 0
-7412 -7411 -7367 0
7412 7411 -7367 0
-7412 7411 7367 0
7412 -7411 7367 0
-4217 -7335 7413 0
-4217 -7411 7413 0
-7335 -7411 7413 0
4217 7335 -7413 0
4217 7411 -7413 0
7335 7411 -7413 0
-4218 -7336 -7414 0
4218 7336 -7414 0
-4218 7336 7414 0
4218 -7336 7414 0
-7414 -7413 -7368 0
7414 7413 -7368 0
-7414 7413 7368 0
7414 -7413 7368 0
-4218 -7336 7415 0
-4218 -7413 7415 0
-7336 -7413 7415 0
4218 7336 -7415 0
4218 7413 -7415 0
7336 7413 -7415 0
-4219 -7337 -7416 0
4219 7337 -7416 0
-4219 7337 7416 0
4219 -7337 7416 0
-7416 -7415 -7369 0
7416 7415 -7369 0
-7416 7415 7369 0
7416 -7415 7369 0
-4219 -7337 7417 0
-4219 -7415 7417 0
-7337 -7415 7417 0
4219 7337 -7417 0
4219 7415 -7417 0
7337 7415 -7417 0
-4220 -7338 -7418 0
4220 7338 -7418 0
-4220 7338 7418 0
4220 -7338 7418 0
-7418 -7417 -7370 0
7418 7417 -7370 0
-7418 7417 7370 0
7418 -7417 7370 0
-4220 -7338 7419 0
-4220 -7417 7419 0
-7338 -7417 7419 0
4220 7338 -7419 0
4220 7417 -7419 0
7338 7417 -7419 0
-4221 -7339 -7420 0
4221 7339 -7420 0
-4221 7339 7420 0
4221 -7339 7420 0
-7420 -7419 -7371 0
7420 7419 -7371 0
-7420 7419 7371 0
7420 -7419 7371 0
-4221 -7339 7421 0
-4221 -7419 7421 0
-7339 -7419 7421 0
4221 7339 -7421 0
4221 7419 -7421 0
7339 7419 -7421 0
-4222 -7340 -7422 0
4222 7340 -7422 0
-4222 7340 7422 0
4222 -7340 7422 0
-7422 -7421 -7372 0
7422 7421 -7372 0
-7422 7421 7372 0
7422 -7421 7372 0
-4222 -7340 7423 0
-4222 -7421 7423 0
-7340 -7421 7423 0
4222 7340 -7423 0
4222 7421 -7423 0
7340 7421 -7423 0
-4223 -7341 -7424 0
4223 7341 -7424 0
-4223 7341 7424 0
4223 -7341 7424 0
-7424 -7423 -7373 0
7424 7423 -7373 0
-7424 7423 7373 0
7424 -7423 7373 0
-4223 -7341 7425 0
-4223 -7423 7425 0
-7341 -7423 7425 0
4223 7341 -7425 0
4223 7423 -7425 0
7341 7423 -7425 0
-4224 -7342 -7426 0
4224 7342 -7426 0
-4224 7342 7426 0
4224 -7342 7426 0
-7426 -7425 -7374 0
7426 7425 -7374 0
-7426 7425 7374 0
7426 -7425 7374 0
-4224 -7342 7427 0
-4224 -7425 7427 0
-7342 -7425 7427 0
4224 7342 -7427 0
4224 7425 -7427 0
7342 7425 -7427 0
-4225 -7343 -7428 0
4225 7343 -7428 0
-4225 7343 7428 0
4225 -7343 7428 0
-7428 -7427 -7375 0
7428 7427 -7375 0
-7428 7427 7375 0
7428 -7427 7375 0
-4225 -7343 7429 0
-4225 -7427 7429 0
-7343 -7427 7429 0
4225 7343 -7429 0
4225 7427 -7429 0
7343 7427 -7429 0
-4226 -7344 -7430 0
4226 7344 -7430 0
-4226 7344 7430 0
4226 -7344 7430 0
-7430 -7429 -7376 0
7430 7429 -7376 0
-7430 7429 7376 0
7430 -7429 7376 0
-4226 -7344 7431 0
-4226 -7429 7431 0
-7344 -7429 7431 0
4226 7344 -7431 0
4226 7429 -7431 0
7344 7429 -7431 0
-4227 -7345 -7432 0
4227 7345 -7432 0
-4227 7345 7432 0
4227 -7345 7432 0
-7432 -7431 -7377 0
7432 7431 -7377 0
-7432 7431 7377 0
7432 -7431 7377 0
-4227 -7345 7433 0
-4227 -7431 7433 0
-7345 -7431 7433 0
4227 7345 -7433 0
4227 7431 -7433 0
7345 7431 -7433 0
-4228 -7346 -7434 0
4228 7346 -7434 0
-4228 7346 7434 0
4228 -7346 7434 0
-7434 -7433 -7378 0
7434 7433 -7378 0
-7434 7433 7378 0
7434 -7433 7378 0
-4228 -7346 7435 0
-4228 -7433 7435 0
-7346 -7433 7435 0
4228 7346 -7435 0
4228 7433 -7435 0
7346 7433 -7435 0
-4229 -7347 -7436 0
4229 7347 -7436 0
-4229 7347 7436 0
4229 -7347 7436 0
-7436 -7435 -7379 0
7436 7435 -7379 0
-7436 7435 7379 0
7436 -7435 7379 0
-4229 -7347 7437 0
-4229 -7435 7437 0
-7347 -7435 7437 0
4229 7347 -7437 0
4229 7435 -7437 0
7347 7435 -7437 0
-4230 -7348 -7438 0
4230 7348 -7438 0
-4230 7348 7438 0
4230 -7348 7438 0
-7438 -7437 -7380 0
7438 7437 -7380 0
-7438 7437 7380 0
7438 -7437 7380 0
-4230 -7348 7439 0
-4230 -7437 7439 0
-7348 -7437 7439 0
4230 7348 -7439 0
4230 7437 -7439 0
7348 7437 -7439 0
-4231 -7349 -7440 0
4231 7349 -7440 0
-4231 7349 7440 0
4231 -7349 7440 0
-7440 -7439 -7381 0
7440 7439 -7381 0
-7440 7439 7381 0
7440 -7439 7381 0
-4231 -7349 7441 0
-4231 -7439 7441 0
-7349 -7439 7441 0
4231 7349 -7441 0
4231 7439 -7441 0
7349 7439 -7441 0
-4232 -7350 -7442 0
4232 7350 -7442 0
-4232 7350 7442 0
4232 -7350 7442 0
-7442 -7441 -7382 0
7442 7441 -7382 0
-7442 7441 7382 0
7442 -7441 7382 0
-4232 -7350 7443 0
-4232 -7441 7443 0
-7350 -7441 7443 0
4232 7350 -7443 0
4232 7441 -7443 0
7350 7441 -7443 0
-4233 -7351 -7444 0
4233 7351 -7444 0
-4233 7351 7444 0
4233 -7351 7444 0
-7444 -7443 -7383 0
7444 7443 -7383 0
-7444 7443 7383 0
7444 -7443 7383 0
-4233 -7351 7445 0
-4233 -7443 7445 0
-7351 -7443 7445 0
4233 7351 -7445 0
4233 7443 -7445 0
7351 7443 -7445 0
-4234 -7352 -7446 0
4234 7352 -7446 0
-4234 7352 7446 0
4234 -7352 7446 0
-7446 -7445 -7384 0
7446 7445 -7384 0
-7446 7445 7384 0
7446 -7445 7384 0
7447 0
7448 0
7449 0
7450 0
7451 0
7452 0
7453 0
-7454 0
-7455 0
7456 0
-7457 0
-7458 0
7459 0
-7460 0
7461 0
-7462 0
-7463 0
7464 0
7465 0
7466 0
-7467 0
-7468 0
-7469 0
-7470 0
7471 0
-7472 0
-7473 0
-7474 0
7475 0
-7476 0
7477 0
-7478 0
-6755 -7447 -7479 0
6755 7447 -7479 0
-6755 7447 7479 0
6755 -7447 7479 0
-6755 -7447 7511 0
6755 -7511 0
7447 -7511 0
-6756 -7448 -7512 0
6756 7448 -7512 0
-6756 7448 7512 0
6756 -7448 7512 0
-7512 -7511 -7480 0
7512 7511 -7480 0
-7512 7511 7480 0
7512 -7511 7480 0
-6756 -7448 7513 0
-6756 -7511 7513 0
-7448 -7511 7513 0
6756 7448 -7513 0
6756 7511 -7513 0
7448 7511 -7513 0
-6757 -7449 -7514 0
6757 7449 -7514 0
-6757 7449 7514 0
6757 -7449 7514 0
-7514 -7513 -7481 0
7514 7513 -7481 0
-7514 7513 7481 0
7514 -7513 7481 0
-6757 -7449 7515 0
-6757 -7513 7515 0
-7449 -7513 7515 0
6757 7449 -7515 0
6757 7513 -7515 0
7449 7513 -7515 0
-6758 -7450 -7516 0
6758 7450 -7516 0
-6758 7450 7516 0
6758 -7450 7516 0
-7516 -7515 -7482 0
7516 7515 -7482 0
-7516 7515 7482 0
7516 -7515 7482 0
-6758 -7450 7517 0
-6758 -7515 7517 0
-7450 -7515 7517 0
6758 7450 -7517 0
6758 7515 -7517 0
7450 7515 -7517 0
-6759 -7451 -7518 0
6759 7451 -7518 0
-6759 7451 7518 0
6759 -7451 7518 0
-7518 -7517 -7483 0
7518 7517 -7483 0
-7518 7517 7483 0
7518 -7517 7483 0
-6759 -7451 7519 0
-6759 -7517 7519 0
-7451 -7517 7519 0
6759 7451 -7519 0
6759 7517 -7519 0
7451 7517 -7519 0
-6760 -7452 -7520 0
6760 7452 -7520 0
-6760 7452 7520 0
6760 -7452 7520 0
-7520 -7519 -7484 0
7520 7519 -7484 0
-7520 7519 7484 0
7520 -7519 7484 0
-6760 -7452 7521 0
-6760 -7519 7521 0
-7452 -7519 7521 0
6760 7452 -7521 0
6760 7519 -7521 0
7452 7519 -7521 0
-6761 -7453 -7522 0
6761 7453 -7522 0
-6761 7453 7522 0
6761 -7453 7522 0
-7522 -7521 -7485 0
7522 7521 -7485 0
-7522 7521 7485 0
7522 -7521 7485 0
-6761 -7453 7523 0
-6761 -7521 7523 0
-7453 -7521 7523 0
6761 7453 -7523 0
6761 7521 -7523 0
7453 7521 -7523 0
-6762 -7454 -7524 0
6762 7454 -7524 0
-6762 7454 7524 0
6762 -7454 7524 0
-7524 -7523 -7486 0
7524 7523 -7486 0
-7524 7523 7486 0
7524 -7523 7486 0
-6762 -7454 7525 0
-6762 -7523 7525 0
-7454 -7523 7525 0
6762 7454 -7525 0
6762 7523 -7525 0
7454 7523 -7525 0
-6763 -7455 -7526 0
6763 7455 -7526 0
-6763 7455 7526 0
6763 -7455 7526 0
-7526 -7525 -7487 0
7526 7525 -7487 0
-7526 7525 7487 0
7526 -7525 7487 0
-6763 -7455 7527 0
-6763 -7525 7527 0
-7455 -7525 7527 0
6763 7455 -7527 0
6763 7525 -7527 0
7455 7525 -7527 0
-6764 -7456 -7528 0
6764 7456 -7528 0
-6764 7456 7528 0
6764 -7456 7528 0
-7528 -7527 -7488 0
7528 7527 -7488 0
-7528 7527 7488 0
7528 -7527 7488 0
-6764 -7456 7529 0
-6764 -7527 7529 0
-7456 -7527 7529 0
6764 7456 -7529 0
6764 7527 -7529 0
7456 7527 -7529 0
-6765 -7457 -7530 0
6765 7457 -7530 0
-6765 7457 7530 0
6765 -7457 7530 0
-7530 -7529 -7489 0
7530 7529 -7489 0
-7530 7529 7489 0
7530 -7529 7489 0
-6765 -7457 7531 0
-6765 -7529 7531 0
-7457 -7529 7531 0
6765 7457 -7531 0
6765 7529 -7531 0
7457 7529 -7531 0
-6766 -7458 -7532 0
6766 7458 -7532 0
-6766 7458 7532 0
6766 -7458 7532 0
-7532 -7531 -7490 0
7532 7531 -7490 0
-7532 7531 7490 0
7532 -7531 7490 0
-6766 -7458 7533 0
-6766 -7531 7533 0
-7458 -7531 7533 0
6766 7458 -7533 0
6766 7531 -7533 0
7458 7531 -7533 0
-6767 -7459 -7534 0
6767 7459 -7534 0
-6767 7459 7534 0
6767 -7459 7534 0
-7534 -7533 -7491 0
7534 7533 -7491 0
-7534 7533 7491 0
7534 -7533 7491 0
-6767 -7459 7535 0
-6767 -7533 7535 0
-7459 -7533 7535 0
6767 7459 -7535 0
6767 7533 -7535 0
7459 7533 -7535 0
-6768 -7460 -7536 0
6768 7460 -7536 0
-6768 7460 7536 0
6768 -7460 7536 0
-7536 -7535 -7492 0
7536 7535 -7492 0
-7536 7535 7492 0
7536 -7535 7492 0
-6768 -7460 7537 0
-6768 -7535 7537 0
-7460 -7535 7537 0
6768 7460 -7537 0
6768 7535 -7537 0
7460 7535 -7537 0
-6769 -7461 -7538 0
6769 7461 -7538 0
-6769 7461 7538 0
6769 -7461 7538 0
-7538 -7537 -7493 0
7538 7537 -7493 0
-7538 7537 7493 0
7538 -7537 7493 0
-6769 -7461 7539 0
-6769 -7537 7539 0
-7461 -7537 7539 0
6769 7461 -7539 0
6769 7537 -7539 0
7461 7537 -7539 0
-6770 -7462 -7540 0
6770 7462 -7540 0
-6770 7462 7540 0
6770 -7462 7540 0
-7540 -7539 -7494 0
7540 7539 -7494 0
-7540 7539 7494 0
7540 -7539 7494 0
-6770 -7462 7541 0
-6770 -7539 7541 0
-7462 -7539 7541 0
6770 7462 -7541 0
6770 7539 -7541 0
7462 7539 -7541 0
-6771 -7463 -7542 0
6771 7463 -7542 0
-6771 7463 7542 0
6771 -7463 7542 0
-7542 -7541 -7495 0
7542 7541 -7495 0
-7542 7541 7495 0
7542 -7541 7495 0
-6771 -7463 7543 0
-6771 -7541 7543 0
-7463 -7541 7543 0
6771 7463 -7543 0
6771 7541 -7543 0
7463 7541 -7543 0
-6772 -7464 -7544 0
6772 7464 -7544 0
-6772 7464 7544 0
6772 -7464 7544 0
-7544 -7543 -7496 0
7544 7543 -7496 0
-7544 7543 7496 0
7544 -7543 7496 0
-6772 -7464 7545 0
-6772 -7543 7545 0
-7464 -7543 7545 0
6772 7464 -7545 0
6772 7543 -7545 0
7464 7543 -7545 0
-6773 -7465 -7546 0
6773 7465 -7546 0
-6773 7465 7546 0
6773 -7465 7546 0
-7546 -7545 -7497 0
7546 7545 -7497 0
-7546 7545 7497 0
7546 -7545 7497 0
-6773 -7465 7547 0
-6773 -7545 7547 0
-7465 -7545 7547 0
6773 7465 -7547 0
6773 7545 -7547 0
7465 7545 -7547 0
-6774 -7466 -7548 0
6774 7466 -7548 0
-6774 7466 7548 0
6774 -7466 7548 0
-7548 -7547 -7498 0
7548 7547 -7498 0
-7548 7547 7498 0
7548 -7547 7498 0
-6774 -7466 7549 0
-6774 -7547 7549 0
-7466 -7547 7549 0
6774 7466 -7549 0
6774 7547 -7549 0
7466 7547 -7549 0
-6775 -7467 -7550 0
6775 7467 -7550 0
-6775 7467 7550 0
6775 -7467 7550 0
-7550 -7549 -7499 0
7550 7549 -7499 0
-7550 7549 7499 0
7550 -7549 7499 0
-6775 -7467 7551 0
-6775 -7549 7551 0
-7467 -7549 7551 0
6775 7467 -7551 0
6775 7549 -7551 0
7467 7549 -7551 0
-6776 -7468 -7552 0
6776 7468 -7552 0
-6776 7468 7552 0
6776 -7468 7552 0
-7552 -7551 -7500 0
7552 7551 -7500 0
-7552 7551 7500 0
7552 -7551 7500 0
-6776 -7468 7553 0
-6776 -7551 7553 0
-7468 -7551 7553 0
6776 7468 -7553 0
6776 7551 -7553 0
7468 7551 -7553 0
-6777 -7469 -7554 0
6777 7469 -7554 0
-6777 7469 7554 0
6777 -7469 7554 0
-7554 -7553 -7501 0
7554 7553 -7501 0
-7554 7553 7501 0
7554 -7553 7501 0
-6777 -7469 7555 0
-6777 -7553 7555 0
-7469 -7553 7555 0
6777 7469 -7555 0
6777 7553 -7555 0
7469 7553 -7555 0
-6778 -7470 -7556 0
6778 7470 -7556 0
-6778 7470 7556 0
6778 -7470 7556 0
-7556 -7555 -7502 0
7556 7555 -7502 0
-7556 7555 7502 0
7556 -7555 7502 0
-6778 -7470 7557 0
-6778 -7555 7557 0
-7470 -7555 7557 0
6778 7470 -7557 0
6778 7555 -7557 0
7470 7555 -7557 0
-6779 -7471 -7558 0
6779 7471 -7558 0
-6779 7471 7558 0
6779 -7471 7558 0
-7558 -7557 -7503 0
7558 7557 -7503 0
-7558 7557 7503 0
7558 -7557 7503 0
-6779 -7471 7559 0
-6779 -7557 7559 0
-7471 -7557 7559 0
6779 7471 -7559 0
6779 7557 -7559 0
7471 7557 -7559 0
-6780 -7472 -7560 0
6780 7472 -7560 0
-6780 7472 7560 0
6780 -7472 7560 0
-7560 -7559 -7504 0
7560 7559 -7504 0
-7560 7559 7504 0
7560 -7559 7504 0
-6780 -7472 7561 0
-6780 -7559 7561 0
-7472 -7559 7561 0
6780 7472 -7561 0
6780 7559 -7561 0
7472 7559 -7561 0
-6781 -7473 -7562 0
6781 7473 -7562 0
-6781 7473 7562 0
6781 -7473 7562 0
-7562 -7561 -7505 0
7562 7561 -7505 0
-7562 7561 7505 0
7562 -7561 7505 0
-6781 -7473 7563 0
-6781 -7561 7563 0
-7473 -7561 7563 0
6781 7473 -7563 0
6781 7561 -7563 0
7473 7561 -7563 0
-6782 -7474 -7564 0
6782 7474 -7564 0
-6782 7474 7564 0
6782 -7474 7564 0
-7564 -7563 -7506 0
7564 7563 -7506 0
-7564 7563 7506 0
7564 -7563 7506 0
-6782 -7474 7565 0
-6782 -7563 7565 0
-7474 -7563 7565 0
6782 7474 -7565 0
6782 7563 -7565 0
7474 7563 -7565 0
-6783 -7475 -7566 0
6783 7475 -7566 0
-6783 7475 7566 0
6783 -7475 7566 0
-7566 -7565 -7507 0
7566 7565 -7507 0
-7566 7565 7507 0
7566 -7565 7507 0
-6783 -7475 7567 0
-6783 -7565 7567 0
-7475 -7565 7567 0
6783 7475 -7567 0
6783 7565 -7567 0
7475 7565 -7567 0
-6784 -7476 -7568 0
6784 7476 -7568 0
-6784 7476 7568 0
6784 -7476 7568 0
-7568 -7567 -7508 0
7568 7567 -7508 0
-7568 7567 7508 0
7568 -7567 7508 0
-6784 -7476 7569 0
-6784 -7567 7569 0
-7476 -7567 7569 0
6784 7476 -7569 0
6784 7567 -7569 0
7476 7567 -7569 0
-6785 -7477 -7570 0
6785 7477 -7570 0
-6785 7477 7570 0
6785 -7477 7570 0
-7570 -7569 -7509 0
7570 7569 -7509 0
-7570 7569 7509 0
7570 -7569 7509 0
-6785 -7477 7571 0
-6785 -7569 7571 0
-7477 -7569 7571 0
6785 7477 -7571 0
6785 7569 -7571 0
7477 7569 -7571 0
-6786 -7478 -7572 0
6786 7478 -7572 0
-6786 7478 7572 0
6786 -7478 7572 0
-7572 -7571 -7510 0
7572 7571 -7510 0
-7572 7571 7510 0
7572 -7571 7510 0
-7573 0
-7574 0
7575 0
7576 0
-7577 0
-7578 0
-7579 0
7580 0
-7581 0
-7582 0
-7583 0
7584 0
-7585 0
7586 0
7587 0
-7588 0
7589 0
-7590 0
7591 0
-7592 0
-7593 0
-7594 0
-7595 0
-7596 0
7597 0
7598 0
-7599 0
7600 0
7601 0
-7602 0
-7603 0
7604 0
-5873 -7573 -7605 0
5873 7573 -7605 0
-5873 7573 7605 0
5873 -7573 7605 0
-5873 -7573 7637 0
5873 -7637 0
7573 -7637 0
-5874 -7574 -7638 0
5874 7574 -7638 0
-5874 7574 7638 0
5874 -7574 7638 0
-7638 -7637 -7606 0
7638 7637 -7606 0
-7638 7637 7606 0
7638 -7637 7606 0
-5874 -7574 7639 0
-5874 -7637 7639 0
-7574 -7637 7639 0
5874 7574 -7639 0
5874 7637 -7639 0
7574 7637 -7639 0
-5875 -7575 -7640 0
5875 7575 -7640 0
-5875 7575 7640 0
5875 -7575 7640 0
-7640 -7639 -7607 0
7640 7639 -7607 0
-7640 7639 7607 0
7640 -7639 7607 0
-5875 -7575 7641 0
-5875 -7639 7641 0
-7575 -7639 7641 0
5875 7575 -7641 0
5875 7639 -7641 0
7575 7639 -7641 0
-5876 -7576 -7642 0
5876 7576 -7642 0
-5876 7576 7642 0
5876 -7576 7642 0
-7642 -7641 -7608 0
7642 7641 -7608 0
-7642 7641 7608 0
7642 -7641 7608 0
-5876 -7576 7643 0
-5876 -7641 7643 0
-7576 -7641 7643 0
5876 7576 -7643 0
5876 7641 -7643 0
7576 7641 -7643 0
-5877 -7577 -7644 0
5877 7577 -7644 0
-5877 7577 7644 0
5877 -7577 7644 0
-7644 -7643 -7609 0
7644 7643 -7609 0
-7644 7643 7609 0
7644 -7643 7609 0
-5877 -7577 7645 0
-5877 -7643 7645 0
-7577 -7643 7645 0
5877 7577 -7645 0
5877 7643 -7645 0
7577 7643 -7645 0
-5878 -7578 -7646 0
5878 7578 -7646 0
-5878 7578 7646 0
5878 -7578 7646 0
-7646 -7645 -7610 0
7646 7645 -7610 0
-7646 7645 7610 0
7646 -7645 7610 0
-5878 -7578 7647 0
-5878 -7645 7647 0
-7578 -7645 7647 0
5878 7578 -7647 0
5878 7645 -7647 0
7578 7645 -7647 0
-5879 -7579 -7648 0
5879 7579 -7648 0
-5879 7579 7648 0
5879 -7579 7648 0
-7648 -7647 -7611 0
7648 7647 -7611 0
-7648 7647 7611 0
7648 -7647 7611 0
-5879 -7579 7649 0
-5879 -7647 7649 0
-7579 -7647 7649 0
5879 7579 -7649 0
5879 7647 -7649 0
7579 7647 -7649 0
-5880 -7580 -7650 0
5880 7580 -7650 0
-5880 7580 7650 0
5880 -7580 7650 0
-7650 -7649 -7612 0
7650 7649 -7612 0
-7650 7649 7612 0
7650 -7649 7612 0
-5880 -7580 7651 0
-5880 -7649 7651 0
-7580 -7649 7651 0
5880 7580 -7651 0
5880 7649 -7651 0
7580 7649 -7651 0
-5881 -7581 -7652 0
5881 7581 -7652 0
-5881 7581 7652 0
5881 -7581 7652 0
-7652 -7651 -7613 0
7652 7651 -7613 0
-7652 7651 7613 0
7652 -7651 7613 0
-5881 -7581 7653 0
-5881 -7651 7653 0
-7581 -7651 7653 0
5881 7581 -7653 0
5881 7651 -7653 0
7581 7651 -7653 0
-5882 -7582 -7654 0
5882 7582 -7654 0
-5882 7582 7654 0
5882 -7582 7654 0
-7654 -7653 -7614 0
7654 7653 -7614 0
-7654 7653 7614 0
7654 -7653 7614 0
-5882 -7582 7655 0
-5882 -7653 7655 0
-7582 -7653 7655 0
5882 7582 -7655 0
5882 7653 -7655 0
7582 7653 -7655 0
-5883 -7583 -7656 0
5883 7583 -7656 0
-5883 7583 7656 0
5883 -7583 7656 0
-7656 -7655 -7615 0
7656 7655 -7615 0
-7656 7655 7615 0
7656 -7655 7615 0
-5883 -7583 7657 0
-5883 -7655 7657 0
-7583 -7655 7657 0
5883 7583 -7657 0
5883 7655 -7657 0
7583 7655 -7657 0
-5884 -7584 -7658 0
5884 7584 -7658 0
-5884 7584 7658 0
5884 -7584 7658 0
-7658 -7657 -7616 0
7658 7657 -7616 0
-7658 7657 7616 0
7658 -7657 7616 0
-5884 -7584 7659 0
-5884 -7657 7659 0
-7584 -7657 7659 0
5884 7584 -7659 0
5884 7657 -7659 0
7584 7657 -7659 0
-5885 -7585 -7660 0
5885 7585 -7660 0
-5885 7585 7660 0
5885 -7585 7660 0
-7660 -7659 -7617 0
7660 7659 -7617 0
-7660 7659 7617 0
7660 -7659 7617 0
-5885 -7585 7661 0
-5885 -7659 7661 0
-7585 -7659 7661 0
5885 7585 -7661 0
5885 7659 -7661 0
7585 7659 -7661 0
-5886 -7586 -7662 0
5886 7586 -7662 0
-5886 7586 7662 0
5886 -7586 7662 0
-7662 -7661 -7618 0
7662 7661 -7618 0
-7662 7661 7618 0
7662 -7661 7618 0
-5886 -7586 7663 0
-5886 -7661 7663 0
-7586 -7661 7663 0
5886 7586 -7663 0
5886 7661 -7663 0
7586 7661 -7663 0
-5887 -7587 -7664 0
5887 7587 -7664 0
-5887 7587 7664 0
5887 -7587 7664 0
-7664 -7663 -7619 0
7664 7663 -7619 0
-7664 7663 7619 0
7664 -7663 7619 0
-5887 -7587 7665 0
-5887 -7663 7665 0
-7587 -7663 7665 0
5887 7587 -7665 0
5887 7663 -7665 0
7587 7663 -7665 0
-5888 -7588 -7666 0
5888 7588 -7666 0
-5888 7588 7666 0
5888 -7588 7666 0
-7666 -7665 -7620 0
7666 7665 -7620 0
-7666 7665 7620 0
7666 -7665 7620 0
-5888 -7588 7667 0
-5888 -7665 7667 0
-7588 -7665 7667 0
5888 7588 -7667 0
5888 7665 -7667 0
7588 7665 -7667 0
-5889 -7589 -7668 0
5889 7589 -7668 0
-5889 7589 7668 0
5889 -7589 7668 0
-7668 -7667 -7621 0
7668 7667 -7621 0
-7668 7667 7621 0
7668 -7667 7621 0
-5889 -7589 7669 0
-5889 -7667 7669 0
-7589 -7667 7669 0
5889 7589 -7669 0
5889 7667 -7669 0
7589 7667 -7669 0
-5890 -7590 -7670 0
5890 7590 -7670 0
-5890 7590 7670 0
5890 -7590 7670 0
-7670 -7669 -7622 0
7670 7669 -7622 0
-7670 7669 7622 0
7670 -7669 7622 0
-5890 -7590 7671 0
-5890 -7669 7671 0
-7590 -7669 7671 0
5890 7590 -7671 0
5890 7669 -7671 0
7590 7669 -7671 0
-5891 -7591 -7672 0
5891 7591 -7672 0
-5891 7591 7672 0
5891 -7591 7672 0
-7672 -7671 -7623 0
7672 7671 -7623 0
-7672 7671 7623 0
7672 -7671 7623 0
-5891 -7591 7673 0
-5891 -7671 7673 0
-7591 -7671 7673 0
5891 7591 -7673 0
5891 7671 -7673 0
7591 7671 -7673 0
-5892 -7592 -7674 0
5892 7592 -7674 0
-5892 7592 7674 0
5892 -7592 7674 0
-7674 -7673 -7624 0
7674 7673 -7624 0
-7674 7673 7624 0
7674 -7673 7624 0
-5892 -7592 7675 0
-5892 -7673 7675 0
-7592 -7673 7675 0
5892 7592 -7675 0
5892 7673 -7675 0
7592 7673 -7675 0
-5893 -7593 -7676 0
5893 7593 -7676 0
-5893 7593 7676 0
5893 -7593 7676 0
-7676 -7675 -7625 0
7676 7675 -7625 0
-7676 7675 7625 0
7676 -7675 7625 0
-5893 -7593 7677 0
-5893 -7675 7677 0
-7593 -7675 7677 0
5893 7593 -7677 0
5893 7675 -7677 0
7593 7675 -7677 0
-5894 -7594 -7678 0
5894 7594 -7678 0
-5894 7594 7678 0
5894 -7594 7678 0
-7678 -7677 -7626 0
7678 7677 -7626 0
-7678 7677 7626 0
7678 -7677 7626 0
-5894 -7594 7679 0
-5894 -7677 7679 0
-7594 -7677 7679 0
5894 7594 -7679 0
5894 7677 -7679 0
7594 7677 -7679 0
-5895 -7595 -7680 0
5895 7595 -7680 0
-5895 7595 7680 0
5895 -7595 7680 0
-7680 -7679 -7627 0
7680 7679 -7627 0
-7680 7679 7627 0
7680 -7679 7627 0
-5895 -7595 7681 0
-5895 -7679 7681 0
-7595 -7679 7681 0
5895 7595 -7681 0
5895 7679 -7681 0
7595 7679 -7681 0
-5896 -7596 -7682 0
5896 7596 -7682 0
-5896 7596 7682 0
5896 -7596 7682 0
-7682 -7681 -7628 0
7682 7681 -7628 0
-7682 7681 7628 0
7682 -7681 7628 0
-5896 -7596 7683 0
-5896 -7681 7683 0
-7596 -7681 7683 0
5896 7596 -7683 0
5896 7681 -7683 0
7596 7681 -7683 0
-5897 -7597 -7684 0
5897 7597 -7684 0
-5897 7597 7684 0
5897 -7597 7684 0
-7684 -7683 -7629 0
7684 7683 -7629 0
-7684 7683 7629 0
7684 -7683 7629 0
-5897 -7597 7685 0
-5897 -7683 7685 0
-7597 -7683 7685 0
5897 7597 -7685 0
5897 7683 -7685 0
7597 7683 -7685 0
-5898 -7598 -7686 0
5898 7598 -7686 0
-5898 7598 7686 0
5898 -7598 7686 0
-7686 -7685 -7630 0
7686 7685 -7630 0
-7686 7685 7630 0
7686 -7685 7630 0
-5898 -7598 7687 0
-5898 -7685 7687 0
-7598 -7685 7687 0
5898 7598 -7687 0
5898 7685 -7687 0
7598 7685 -7687 0
-5899 -7599 -7688 0
5899 7599 -7688 0
-5899 7599 7688 0
5899 -7599 7688 0
-7688 -7687 -7631 0
7688 7687 -7631 0
-7688 7687 7631 0
7688 -7687 7631 0
-5899 -7599 7689 0
-5899 -7687 7689 0
-7599 -7687 7689 0
5899 7599 -7689 0
5899 7687 -7689 0
7599 7687 -7689 0
-5900 -7600 -7690 0
5900 7600 -7690 0
-5900 7600 7690 0
5900 -7600 7690 0
-7690 -7689 -7632 0
7690 7689 -7632 0
-7690 7689 7632 0
7690 -7689 7632 0
-5900 -7600 7691 0
-5900 -7689 7691 0
-7600 -7689 7691 0
5900 7600 -7691 0
5900 7689 -7691 0
7600 7689 -7691 0
-5901 -7601 -7692 0
5901 7601 -7692 0
-5901 7601 7692 0
5901 -7601 7692 0
-7692 -7691 -7633 0
7692 7691 -7633 0
-7692 7691 7633 0
7692 -7691 7633 0
-5901 -7601 7693 0
-5901 -7691 7693 0
-7601 -7691 7693 0
5901 7601 -7693 0
5901 7691 -7693 0
7601 7691 -7693 0
-5902 -7602 -7694 0
5902 7602 -7694 0
-5902 7602 7694 0
5902 -7602 7694 0
-7694 -7693 -7634 0
7694 7693 -7634 0
-7694 7693 7634 0
7694 -7693 7634 0
-5902 -7602 7695 0
-5902 -7693 7695 0
-7602 -7693 7695 0
5902 7602 -7695 0
5902 7693 -7695 0
7602 7693 -7695 0
-5903 -7603 -7696 0
5903 7603 -7696 0
-5903 7603 7696 0
5903 -7603 7696 0
-7696 -7695 -7635 0
7696 7695 -7635 0
-7696 7695 7635 0
7696 -7695 7635 0
-5903 -7603 7697 0
-5903 -7695 7697 0
-7603 -7695 7697 0
5903 7603 -7697 0
5903 7695 -7697 0
7603 7695 -7697 0
-5904 -7604 -7698 0
5904 7604 -7698 0
-5904 7604 7698 0
5904 -7604 7698 0
-7698 -7697 -7636 0
7698 7697 -7636 0
-7698 7697 7636 0
7698 -7697 7636 0
7699 0
7700 0
-7701 0
7702 0
-7703 0
7704 0
-7705 0
7706 0
7707 0
-7708 0
-7709 0
7710 0
7711 0
-7712 0
7713 0
7714 0
7715 0
7716 0
-7717 0
-7718 0
-7719 0
-7720 0
-7721 0
7722 0
7723 0
7724 0
7725 0
7726 0
7727 0
-7728 0
-7729 0
-7730 0
-4991 -7699 -7731 0
4991 7699 -7731 0
-4991 7699 7731 0
4991 -7699 7731 0
-4991 -7699 7763 0
4991 -7763 0
7699 -7763 0
-4992 -7700 -7764 0
4992 7700 -7764 0
-4992 7700 7764 0
4992 -7700 7764 0
-7764 -7763 -7732 0
7764 7763 -7732 0
-7764 7763 7732 0
7764 -7763 7732 0
-4992 -7700 7765 0
-4992 -7763 7765 0
-7700 -7763 7765 0
4992 7700 -7765 0
4992 7763 -7765 0
7700 7763 -7765 0
-4993 -7701 -7766 0
4993 7701 -7766 0
-4993 7701 7766 0
4993 -7701 7766 0
-7766 -7765 -7733 0
7766 7765 -7733 0
-7766 7765 7733 0
7766 -7765 7733 0
-4993 -7701 7767 0
-4993 -7765 7767 0
-7701 -7765 7767 0
4993 7701 -7767 0
4993 7765 -7767 0
7701 7765 -7767 0
-4994 -7702 -7768 0
4994 7702 -7768 0
-4994 7702 7768 0
4994 -7702 7768 0
-7768 -7767 -7734 0
7768 7767 -7734 0
-7768 7767 7734 0
7768 -7767 7734 0
-4994 -7702 7769 0
-4994 -7767 7769 0
-7702 -7767 7769 0
4994 7702 -7769 0
4994 7767 -7769 0
7702 7767 -7769 0
-4995 -7703 -7770 0
4995 7703 -7770 0
-4995 7703 7770 0
4995 -7703 7770 0
-7770 -7769 -7735 0
7770 7769 -7735 0
-7770 7769 7735 0
7770 -7769 7735 0
-4995 -7703 7771 0
-4995 -7769 7771 0
-7703 -7769 7771 0
4995 7703 -7771 0
4995 7769 -7771 0
7703 7769 -7771 0
-4996 -7704 -7772 0
4996 7704 -7772 0
-4996 7704 7772 0
4996 -7704 7772 0
-7772 -7771 -7736 0
7772 7771 -7736 0
-7772 7771 7736 0
7772 -7771 7736 0
-4996 -7704 7773 0
-4996 -7771 7773 0
-7704 -7771 7773 0
4996 7704 -7773 0
4996 7771 -7773 0
7704 7771 -7773 0
-4997 -7705 -7774 0
4997 7705 -7774 0
-4997 7705 7774 0
4997 -7705 7774 0
-7774 -7773 -7737 0
7774 7773 -7737 0
-7774 7773 7737 0
7774 -7773 7737 0
-4997 -7705 7775 0
-4997 -7773 7775 0
-7705 -7773 7775 0
4997 7705 -7775 0
4997 7773 -7775 0
7705 7773 -7775 0
-4998 -7706 -7776 0
4998 7706 -7776 0
-4998 7706 7776 0
4998 -7706 7776 0
-7776 -7775 -7738 0
7776 7775 -7738 0
-7776 7775 7738 0
7776 -7775 7738 0
-4998 -7706 7777 0
-4998 -7775 7777 0
-7706 -7775 7777 0
4998 7706 -7777 0
4998 7775 -7777 0
7706 7775 -7777 0
-4999 -7707 -7778 0
4999 7707 -7778 0
-4999 7707 7778 0
4999 -7707 7778 0
-7778 -7777 -7739 0
7778 7777 -7739 0
-7778 7777 7739 0
7778 -7777 7739 0
-4999 -7707 7779 0
-4999 -7777 7779 0
-7707 -7777 7779 0
4999 7707 -7779 0
4999 7777 -7779 0
7707 7777 -7779 0
-5000 -7708 -7780 0
5000 7708 -7780 0
-5000 7708 7780 0
5000 -7708 7780 0
-7780 -7779 -7740 0
7780 7779 -7740 0
-7780 7779 7740 0
7780 -7779 7740 0
-5000 -7708 7781 0
-5000 -7779 7781 0
-7708 -7779 7781 0
5000 7708 -7781 0
5000 7779 -7781 0
7708 7779 -7781 0
-5001 -7709 -7782 0
5001 7709 -7782 0
-5001 7709 7782 0
5001 -7709 7782 0
-7782 -7781 -7741 0
7782 7781 -7741 0
-7782 7781 7741 0
7782 -7781 7741 0
-5001 -7709 7783 0
-5001 -7781 7783 0
-7709 -7781 7783 0
5001 7709 -7783 0
5001 7781 -7783 0
7709 7781 -7783 0
-5002 -7710 -7784 0
5002 7710 -7784 0
-5002 7710 7784 0
5002 -7710 7784 0
-7784 -7783 -7742 0
7784 7783 -7742 0
-7784 7783 7742 0
7784 -7783 7742 0
-5002 -7710 7785 0
-5002 -7783 7785 0
-7710 -7783 7785 0
5002 7710 -7785 0
5002 7783 -7785 0
7710 7783 -7785 0
-5003 -7711 -7786 0
5003 7711 -7786 0
-5003 7711 7786 0
5003 -7711 7786 0
-7786 -7785 -7743 0
7786 7785 -7743 0
-7786 7785 7743 0
7786 -7785 7743 0
-5003 -7711 7787 0
-5003 -7785 7787 0
-7711 -7785 7787 0
5003 7711 -7787 0
5003 7785 -7787 0
7711 7785 -7787 0
-5004 -7712 -7788 0
5004 7712 -7788 0
-5004 7712 7788 0
5004 -7712 7788 0
-7788 -7787 -7744 0
7788 7787 -7744 0
-7788 7787 7744 0
7788 -7787 7744 0
-5004 -7712 7789 0
-5004 -7787 7789 0
-7712 -7787 7789 0
5004 7712 -7789 0
5004 7787 -7789 0
7712 7787 -7789 0
-5005 -7713 -7790 0
5005 7713 -7790 0
-5005 7713 7790 0
5005 -7713 7790 0
-7790 -7789 -7745 0
7790 7789 -7745 0
-7790 7789 7745 0
7790 -7789 7745 0
-5005 -7713 7791 0
-5005 -7789 7791 0
-7713 -7789 7791 0
5005 7713 -7791 0
5005 7789 -7791 0
7713 7789 -7791 0
-5006 -7714 -7792 0
5006 7714 -7792 0
-5006 7714 7792 0
5006 -7714 7792 0
-7792 -7791 -7746 0
7792 7791 -7746 0
-7792 7791 7746 0
7792 -7791 7746 0
-5006 -7714 7793 0
-5006 -7791 7793 0
-7714 -7791 7793 0
5006 7714 -7793 0
5006 7791 -7793 0
7714 7791 -7793 0
-5007 -7715 -7794 0
5007 7715 -7794 0
-5007 7715 7794 0
5007 -7715 7794 0
-7794 -7793 -7747 0
7794 7793 -7747 0
-7794 7793 7747 0
7794 -7793 7747 0
-5007 -7715 7795 0
-5007 -7793 7795 0
-7715 -7793 7795 0
5007 7715 -7795 0
5007 7793 -7795 0
7715 7793 -7795 0
-5008 -7716 -7796 0
5008 7716 -7796 0
-5008 7716 7796 0
5008 -7716 7796 0
-7796 -7795 -7748 0
7796 7795 -7748 0
-7796 7795 7748 0
7796 -7795 7748 0
-5008 -7716 7797 0
-5008 -7795 7797 0
-7716 -7795 7797 0
5008 7716 -7797 0
5008 7795 -7797 0
7716 7795 -7797 0
-5009 -7717 -7798 0
5009 7717 -7798 0
-5009 7717 7798 0
5009 -7717 7798 0
-7798 -7797 -7749 0
7798 7797 -7749 0
-7798 7797 7749 0
7798 -7797 7749 0
-5009 -7717 7799 0
-5009 -7797 7799 0
-7717 -7797 7799 0
5009 7717 -7799 0
5009 7797 -7799 0
7717 7797 -7799 0
-5010 -7718 -7800 0
5010 7718 -7800 0
-5010 7718 7800 0
5010 -7718 7800 0
-7800 -7799 -7750 0
7800 7799 -7750 0
-7800 7799 7750 0
7800 -7799 7750 0
-5010 -7718 7801 0
-5010 -7799 7801 0
-7718 -7799 7801 0
5010 7718 -7801 0
5010 7799 -7801 0
7718 7799 -7801 0
-5011 -7719 -7802 0
5011 7719 -7802 0
-5011 7719 7802 0
5011 -7719 7802 0
-7802 -7801 -7751 0
7802 7801 -7751 0
-7802 7801 7751 0
7802 -7801 7751 0
-5011 -7719 7803 0
-5011 -7801 7803 0
-7719 -7801 7803 0
5011 7719 -7803 0
5011 7801 -7803 0
7719 7801 -7803 0
-5012 -7720 -7804 0
5012 7720 -7804 0
-5012 7720 7804 0
5012 -7720 7804 0
-7804 -7803 -7752 0
7804 7803 -7752 0
-7804 7803 7752 0
7804 -7803 7752 0
-5012 -7720 7805 0
-5012 -7803 7805 0
-7720 -7803 7805 0
5012 7720 -7805 0
5012 7803 -7805 0
7720 7803 -7805 0
-5013 -7721 -7806 0
5013 7721 -7806 0
-5013 7721 7806 0
5013 -7721 7806 0
-7806 -7805 -7753 0
7806 7805 -7753 0
-7806 7805 7753 0
7806 -7805 7753 0
-5013 -7721 7807 0
-5013 -7805 7807 0
-7721 -7805 7807 0
5013 7721 -7807 0
5013 7805 -7807 0
7721 7805 -7807 0
-5014 -7722 -7808 0
5014 7722 -7808 0
-5014 7722 7808 0
5014 -7722 7808 0
-7808 -7807 -7754 0
7808 7807 -7754 0
-7808 7807 7754 0
7808 -7807 7754 0
-5014 -7722 7809 0
-5014 -7807 7809 0
-7722 -7807 7809 0
5014 7722 -7809 0
5014 7807 -7809 0
7722 7807 -7809 0
-5015 -7723 -7810 0
5015 7723 -7810 0
-5015 7723 7810 0
5015 -7723 7810 0
-7810 -7809 -7755 0
7810 7809 -7755 0
-7810 7809 7755 0
7810 -7809 7755 0
-5015 -7723 7811 0
-5015 -7809 7811 0
-7723 -7809 7811 0
5015 7723 -7811 0
5015 7809 -7811 0
7723 7809 -7811 0
-5016 -7724 -7812 0
5016 7724 -7812 0
-5016 7724 7812 0
5016 -7724 7812 0
-7812 -7811 -7756 0
7812 7811 -7756 0
-7812 7811 7756 0
7812 -7811 7756 0
-5016 -7724 7813 0
-5016 -7811 7813 0
-7724 -7811 7813 0
5016 7724 -7813 0
5016 7811 -7813 0
7724 7811 -7813 0
-5017 -7725 -7814 0
5017 7725 -7814 0
-5017 7725 7814 0
5017 -7725 7814 0
-7814 -7813 -7757 0
7814 7813 -7757 0
-7814 7813 7757 0
7814 -7813 7757 0
-5017 -7725 7815 0
-5017 -7813 7815 0
-7725 -7813 7815 0
5017 7725 -7815 0
5017 7813 -7815 0
7725 7813 -7815 0
-5018 -7726 -7816 0
5018 7726 -7816 0
-5018 7726 7816 0
5018 -7726 7816 0
-7816 -7815 -7758 0
7816 7815 -7758 0
-7816 7815 7758 0
7816 -7815 7758 0
-5018 -7726 7817 0
-5018 -7815 7817 0
-7726 -7815 7817 0
5018 7726 -7817 0
5018 7815 -7817 0
7726 7815 -7817 0
-5019 -7727 -7818 0
5019 7727 -7818 0
-5019 7727 7818 0
5019 -7727 7818 0
-7818 -7817 -7759 0
7818 7817 -7759 0
-7818 7817 7759 0
7818 -7817 7759 0
-5019 -7727 7819 0
-5019 -7817 7819 0
-7727 -7817 7819 0
5019 7727 -7819 0
5019 7817 -7819 0
7727 7817 -7819 0
-5020 -7728 -7820 0
5020 7728 -7820 0
-5020 7728 7820 0
5020 -7728 7820 0
-7820 -7819 -7760 0
7820 7819 -7760 0
-7820 7819 7760 0
7820 -7819 7760 0
-5020 -7728 7821 0
-5020 -7819 7821 0
-7728 -7819 7821 0
5020 7728 -7821 0
5020 7819 -7821 0
7728 7819 -7821 0
-5021 -7729 -7822 0
5021 7729 -7822 0
-5021 7729 7822 0
5021 -7729 7822 0
-7822 -7821 -7761 0
7822 7821 -7761 0
-7822 7821 7761 0
7822 -7821 7761 0
-5021 -7729 7823 0
-5021 -7821 7823 0
-7729 -7821 7823 0
5021 7729 -7823 0
5021 7821 -7823 0
7729 7821 -7823 0
-5022 -7730 -7824 0
5022 7730 -7824 0
-5022 7730 7824 0
5022 -7730 7824 0
-7824 -7823 -7762 0
7824 7823 -7762 0
-7824 7823 7762 0
7824 -7823 7762 0
7825 0
-7826 0
-7827 0
7828 0
7829 0
-7830 0
-7831 0
-7832 0
7833 0
-7834 0
7835 0
7836 0
-7837 0
-7838 0
7839 0
7840 0
-7841 0
-7842 0
-7843 0
-7844 0
-7845 0
7846 0
7847 0
7848 0
7849 0
7850 0
-7851 0
7852 0
7853 0
-7854 0
7855 0
-7856 0
-4109 -7825 -7857 0
4109 7825 -7857 0
-4109 7825 7857 0
4109 -7825 7857 0
-4109 -7825 7889 0
4109 -7889 0
7825 -7889 0
-4110 -7826 -7890 0
4110 7826 -7890 0
-4110 7826 7890 0
4110 -7826 7890 0
-7890 -7889 -7858 0
7890 7889 -7858 0
-7890 7889 7858 0
7890 -7889 7858 0
-4110 -7826 7891 0
-4110 -7889 7891 0
-7826 -7889 7891 0
4110 7826 -7891 0
4110 7889 -7891 0
7826 7889 -7891 0
-4111 -7827 -7892 0
4111 7827 -7892 0
-4111 7827 7892 0
4111 -7827 7892 0
-7892 -7891 -7859 0
7892 7891 -7859 0
-7892 7891 7859 0
7892 -7891 7859 0
-4111 -7827 7893 0
-4111 -7891 7893 0
-7827 -7891 7893 0
4111 7827 -7893 0
4111 7891 -7893 0
7827 7891 -7893 0
-4112 -7828 -7894 0
4112 7828 -7894 0
-4112 7828 7894 0
4112 -7828 7894 0
-7894 -7893 -7860 0
7894 7893 -7860 0
-7894 7893 7860 0
7894 -7893 7860 0
-4112 -7828 7895 0
-4112 -7893 7895 0
-7828 -7893 7895 0
4112 7828 -7895 0
4112 7893 -7895 0
7828 7893 -7895 0
-4113 -7829 -7896 0
4113 7829 -7896 0
-4113 7829 7896 0
4113 -7829 7896 0
-7896 -7895 -7861 0
7896 7895 -7861 0
-7896 7895 7861 0
7896 -7895 7861 0
-4113 -7829 7897 0
-4113 -7895 7897 0
-7829 -7895 7897 0
4113 7829 -7897 0
4113 7895 -7897 0
7829 7895 -7897 0
-4114 -7830 -7898 0
4114 7830 -7898 0
-4114 7830 7898 0
4114 -7830 7898 0
-7898 -7897 -7862 0
7898 7897 -7862 0
-7898 7897 7862 0
7898 -7897 7862 0
-4114 -7830 7899 0
-4114 -7897 7899 0
-7830 -7897 7899 0
4114 7830 -7899 0
4114 7897 -7899 0
7830 7897 -7899 0
-4115 -7831 -7900 0
4115 7831 -7900 0
-4115 7831 7900 0
4115 -7831 7900 0
-7900 -7899 -7863 0
7900 7899 -7863 0
-7900 7899 7863 0
7900 -7899 7863 0
-4115 -7831 7901 0
-4115 -7899 7901 0
-7831 -7899 7901 0
4115 7831 -7901 0
4115 7899 -7901 0
7831 7899 -7901 0
-4116 -7832 -7902 0
4116 7832 -7902 0
-4116 7832 7902 0
4116 -7832 7902 0
-7902 -7901 -7864 0
7902 7901 -7864 0
-7902 7901 7864 0
7902 -7901 7864 0
-4116 -7832 7903 0
-4116 -7901 7903 0
-7832 -7901 7903 0
4116 7832 -7903 0
4116 7901 -7903 0
7832 7901 -7903 0
-4117 -7833 -7904 0
4117 7833 -7904 0
-4117 7833 7904 0
4117 -7833 7904 0
-7904 -7903 -7865 0
7904 7903 -7865 0
-7904 7903 7865 0
7904 -7903 7865 0
-4117 -7833 7905 0
-4117 -7903 7905 0
-7833 -7903 7905 0
4117 7833 -7905 0
4117 7903 -7905 0
7833 7903 -7905 0
-4118 -7834 -7906 0
4118 7834 -7906 0
-4118 7834 7906 0
4118 -7834 7906 0
-7906 -7905 -7866 0
7906 7905 -7866 0
-7906 7905 7866 0
7906 -7905 7866 0
-4118 -7834 7907 0
-4118 -7905 7907 0
-7834 -7905 7907 0
4118 7834 -7907 0
4118 7905 -7907 0
7834 7905 -7907 0
-4119 -7835 -7908 0
4119 7835 -7908 0
-4119 7835 7908 0
4119 -7835 7908 0
-7908 -7907 -7867 0
7908 7907 -7867 0
-7908 7907 7867 0
7908 -7907 7867 0
-4119 -7835 7909 0
-4119 -7907 7909 0
-7835 -7907 7909 0
4119 7835 -7909 0
4119 7907 -7909 0
7835 7907 -7909 0
-4120 -7836 -7910 0
4120 7836 -7910 0
-4120 7836 7910 0
4120 -7836 7910 0
-7910 -7909 -7868 0
7910 7909 -7868 0
-7910 7909 7868 0
7910 -7909 7868 0
-4120 -7836 7911 0
-4120 -7909 7911 0
-7836 -7909 7911 0
4120 7836 -7911 0
4120 7909 -7911 0
7836 7909 -7911 0
-4121 -7837 -7912 0
4121 7837 -7912 0
-4121 7837 7912 0
4121 -7837 7912 0
-7912 -7911 -7869 0
7912 7911 -7869 0
-7912 7911 7869 0
7912 -7911 7869 0
-4121 -7837 7913 0
-4121 -7911 7913 0
-7837 -7911 7913 0
4121 7837 -7913 0
4121 7911 -7913 0
7837 7911 -7913 0
-4122 -7838 -7914 0
4122 7838 -7914 0
-4122 7838 7914 0
4122 -7838 7914 0
-7914 -7913 -7870 0
7914 7913 -7870 0
-7914 7913 7870 0
7914 -7913 7870 0
-4122 -7838 7915 0
-4122 -7913 7915 0
-7838 -7913 7915 0
4122 7838 -7915 0
4122 7913 -7915 0
7838 7913 -7915 0
-4123 -7839 -7916 0
4123 7839 -7916 0
-4123 7839 7916 0
4123 -7839 7916 0
-7916 -7915 -7871 0
7916 7915 -7871 0
-7916 7915 7871 0
7916 -7915 7871 0
-4123 -7839 7917 0
-4123 -7915 7917 0
-7839 -7915 7917 0
4123 7839 -7917 0
4123 7915 -7917 0
7839 7915 -7917 0
-4124 -7840 -7918 0
4124 7840 -7918 0
-4124 7840 7918 0
4124 -7840 7918 0
-7918 -7917 -7872 0
7918 7917 -7872 0
-7918 7917 7872 0
7918 -7917 7872 0
-4124 -7840 7919 0
-4124 -7917 7919 0
-7840 -7917 7919 0
4124 7840 -7919 0
4124 7917 -7919 0
7840 7917 -7919 0
-4125 -7841 -7920 0
4125 7841 -7920 0
-4125 7841 7920 0
4125 -7841 7920 0
-7920 -7919 -7873 0
7920 7919 -7873 0
-7920 7919 7873 0
7920 -7919 7873 0
-4125 -7841 7921 0
-4125 -7919 7921 0
-7841 -7919 7921 0
4125 7841 -7921 0
4125 7919 -7921 0
7841 7919 -7921 0
-4126 -7842 -7922 0
4126 7842 -7922 0
-4126 7842 7922 0
4126 -7842 7922 0
-7922 -7921 -7874 0
7922 7921 -7874 0
-7922 7921 7874 0
7922 -7921 7874 0
-4126 -7842 7923 0
-4126 -7921 7923 0
-7842 -7921 7923 0
4126 7842 -7923 0
4126 7921 -7923 0
7842 7921 -7923 0
-4127 -7843 -7924 0
4127 7843 -7924 0
-4127 7843 7924 0
4127 -7843 7924 0
-7924 -7923 -7875 0
7924 7923 -7875 0
-7924 7923 7875 0
7924 -7923 7875 0
-4127 -7843 7925 0
-4127 -7923 7925 0
-7843 -7923 7925 0
4127 7843 -7925 0
4127 7923 -7925 0
7843 7923 -7925 0
-4128 -7844 -7926 0
4128 7844 -7926 0
-4128 7844 7926 0
4128 -7844 7926 0
-7926 -7925 -7876 0
7926 7925 -7876 0
-7926 7925 7876 0
7926 -7925 7876 0
-4128 -7844 7927 0
-4128 -7925 7927 0
-7844 -7925 7927 0
4128 7844 -7927 0
4128 7925 -7927 0
7844 7925 -7927 0
-4129 -7845 -7928 0
4129 7845 -7928 0
-4129 7845 7928 0
4129 -7845 7928 0
-7928 -7927 -7877 0
7928 7927 -7877 0
-7928 7927 7877 0
7928 -7927 7877 0
-4129 -7845 7929 0
-4129 -7927 7929 0
-7845 -7927 7929 0
4129 7845 -7929 0
4129 7927 -7929 0
7845 7927 -7929 0
-4130 -7846 -7930 0
4130 7846 -7930 0
-4130 7846 7930 0
4130 -7846 7930 0
-7930 -7929 -7878 0
7930 7929 -7878 0
-7930 7929 7878 0
7930 -7929 7878 0
-4130 -7846 7931 0
-4130 -7929 7931 0
-7846 -7929 7931 0
4130 7846 -7931 0
4130 7929 -7931 0
7846 7929 -7931 0
-4131 -7847 -7932 0
4131 7847 -7932 0
-4131 7847 7932 0
4131 -7847 7932 0
-7932 -7931 -7879 0
7932 7931 -7879 0
-7932 7931 7879 0
7932 -7931 7879 0
-4131 -7847 7933 0
-4131 -7931 7933 0
-7847 -7931 7933 0
4131 7847 -7933 0
4131 7931 -7933 0
7847 7931 -7933 0
-4132 -7848 -7934 0
4132 7848 -7934 0
-4132 7848 7934 0
4132 -7848 7934 0
-7934 -7933 -7880 0
7934 7933 -7880 0
-7934 7933 7880 0
7934 -7933 7880 0
-4132 -7848 7935 0
-4132 -7933 7935 0
-7848 -7933 7935 0
4132 7848 -7935 0
4132 7933 -7935 0
7848 7933 -7935 0
-4133 -7849 -7936 0
4133 7849 -7936 0
-4133 7849 7936 0
4133 -7849 7936 0
-7936 -7935 -7881 0
7936 7935 -7881 0
-7936 7935 7881 0
7936 -7935 7881 0
-4133 -7849 7937 0
-4133 -7935 7937 0
-7849 -7935 7937 0
4133 7849 -7937 0
4133 7935 -7937 0
7849 7935 -7937 0
-4134 -7850 -7938 0
4134 7850 -7938 0
-4134 7850 7938 0
4134 -7850 7938 0
-7938 -7937 -7882 0
7938 7937 -7882 0
-7938 7937 7882 0
7938 -7937 7882 0
-4134 -7850 7939 0
-4134 -7937 7939 0
-7850 -7937 7939 0
4134 7850 -7939 0
4134 7937 -7939 0
7850 7937 -7939 0
-4135 -7851 -7940 0
4135 7851 -7940 0
-4135 7851 7940 0
4135 -7851 7940 0
-7940 -7939 -7883 0
7940 7939 -7883 0
-7940 7939 7883 0
7940 -7939 7883 0
-4135 -7851 7941 0
-4135 -7939 7941 0
-7851 -7939 7941 0
4135 7851 -7941 0
4135 7939 -7941 0
7851 7939 -7941 0
-4136 -7852 -7942 0
4136 7852 -7942 0
-4136 7852 7942 0
4136 -7852 7942 0
-7942 -7941 -7884 0
7942 7941 -7884 0
-7942 7941 7884 0
7942 -7941 7884 0
-4136 -7852 7943 0
-4136 -7941 7943 0
-7852 -7941 7943 0
4136 7852 -7943 0
4136 7941 -7943 0
7852 7941 -7943 0
-4137 -7853 -7944 0
4137 7853 -7944 0
-4137 7853 7944 0
4137 -7853 7944 0
-7944 -7943 -7885 0
7944 7943 -7885 0
-7944 7943 7885 0
7944 -7943 7885 0
-4137 -7853 7945 0
-4137 -7943 7945 0
-7853 -7943 7945 0
4137 7853 -7945 0
4137 7943 -7945 0
7853 7943 -7945 0
-4138 -7854 -7946 0
4138 7854 -7946 0
-4138 7854 7946 0
4138 -7854 7946 0
-7946 -7945 -7886 0
7946 7945 -7886 0
-7946 7945 7886 0
7946 -7945 7886 0
-4138 -7854 7947 0
-4138 -7945 7947 0
-7854 -7945 7947 0
4138 7854 -7947 0
4138 7945 -7947 0
7854 7945 -7947 0
-4139 -7855 -7948 0
4139 7855 -7948 0
-4139 7855 7948 0
4139 -7855 7948 0
-7948 -7947 -7887 0
7948 7947 -7887 0
-7948 7947 7887 0
7948 -7947 7887 0
-4139 -7855 7949 0
-4139 -7947 7949 0
-7855 -7947 7949 0
4139 7855 -7949 0
4139 7947 -7949 0
7855 7947 -7949 0
-4140 -7856 -7950 0
4140 7856 -7950 0
-4140 7856 7950 0
4140 -7856 7950 0
-7950 -7949 -7888 0
7950 7949 -7888 0
-7950 7949 7888 0
7950 -7949 7888 0
-6975 0
6976 0
6977 0
-6978 0
-6979 0
-6980 0
6981 0
-6982 0
-6983 0
-6984 0
6985 0
-6986 0
6987 0
-6988 0
6989 0
-6990 0
6991 0
6992 0
6993 0
-6994 0
6995 0
-6996 0
-6997 0
6998 0
6999 0
7000 0
7001 0
7002 0
7003 0
7004 0
7005 0
7006 0
-7101 0
7102 0
7103 0
-7104 0
-7105 0
7106 0
-7107 0
-7108 0
7109 0
7110 0
7111 0
7112 0
-7113 0
-7114 0
7115 0
7116 0
7117 0
-7118 0
7119 0
7120 0
7121 0
7122 0
-7123 0
7124 0
-7125 0
7126 0
-7127 0
-7128 0
-7129 0
7130 0
-7131 0
7132 0
7227 0
-7228 0
-7229 0
-7230 0
-7231 0
7232 0
7233 0
7234 0
-7235 0
7236 0
7237 0
7238 0
-7239 0
-7240 0
-7241 0
-7242 0
7243 0
7244 0
-7245 0
7246 0
7247 0
7248 0
-7249 0
7250 0
7251 0
-7252 0
-7253 0
-7254 0
7255 0
7256 0
7257 0
-7258 0
7353 0
-7354 0
-7355 0
7356 0
7357 0
7358 0
7359 0
-7360 0
7361 0
7362 0
7363 0
7364 0
-7365 0
-7366 0
-7367 0
7368 0
-7369 0
-7370 0
7371 0
-7372 0
-7373 0
-7374 0
7375 0
7376 0
-7377 0
-7378 0
-7379 0
7380 0
7381 0
7382 0
-7383 0
-7384 0
-7479 0
-7480 0
-7481 0
7482 0
-7483 0
7484 0
7485 0
7486 0
-7487 0
-7488 0
-7489 0
-7490 0
-7491 0
7492 0
-7493 0
-7494 0
7495 0
-7496 0
-7497 0
7498 0
-7499 0
-7500 0
-7501 0
7502 0
7503 0
-7504 0
7505 0
-7506 0
7507 0
-7508 0
7509 0
7510 0
7605 0
-7606 0
-7607 0
-7608 0
-7609 0
7610 0
7611 0
7612 0
7613 0
-7614 0
7615 0
-7616 0
7617 0
-7618 0
7619 0
-7620 0
-7621 0
7622 0
-7623 0
7624 0
-7625 0
7626 0
7627 0
-7628 0
-7629 0
7630 0
-7631 0
7632 0
7633 0
7634 0
7635 0
7636 0
-7731 0
-7732 0
-7733 0
7734 0
7735 0
-7736 0
-7737 0
-7738 0
7739 0
7740 0
-7741 0
-7742 0
7743 0
-7744 0
7745 0
7746 0
7747 0
7748 0
-7749 0
-7750 0
-7751 0
7752 0
-7753 0
-7754 0
-7755 0
7756 0
-7757 0
7758 0
-7759 0
7760 0
-7761 0
-7762 0
-7857 0
7858 0
7859 0
-7860 0
7861 0
-7862 0
-7863 0
-7864 0
-7865 0
7866 0
-7867 0
7868 0
-7869 0
-7870 0
-7871 0
7872 0
-7873 0
7874 0
7875 0
7876 0
-7877 0
-7878 0
7879 0
7880 0
-7881 0
7882 0
7883 0
7884 0
7885 0
-7886 0
-7887 0
7888 0
