c SHA-256 Cryptanalysis CNF formula
p cnf 2658 8157
513 0
514 0
515 0
-516 0
-517 0
518 0
519 0
-520 0
-521 0
522 0
523 0
-524 0
-525 0
526 0
527 0
528 0
529 0
-530 0
-531 0
532 0
-533 0
-534 0
-535 0
-536 0
-537 0
538 0
-539 0
540 0
-541 0
542 0
543 0
-544 0
545 0
-546 0
547 0
-548 0
-549 0
-550 0
-551 0
552 0
-553 0
554 0
555 0
556 0
-557 0
558 0
-559 0
560 0
561 0
562 0
563 0
-564 0
-565 0
566 0
567 0
-568 0
569 0
570 0
-571 0
572 0
573 0
574 0
-575 0
576 0
-577 0
578 0
-579 0
-580 0
581 0
582 0
583 0
-584 0
585 0
586 0
-587 0
-588 0
589 0
590 0
591 0
592 0
-593 0
594 0
595 0
596 0
-597 0
598 0
599 0
-600 0
-601 0
-602 0
603 0
604 0
605 0
606 0
-607 0
-608 0
-609 0
610 0
-611 0
612 0
613 0
614 0
-615 0
-616 0
617 0
-618 0
619 0
-620 0
621 0
622 0
623 0
624 0
625 0
626 0
627 0
628 0
-629 0
-630 0
631 0
-632 0
633 0
-634 0
635 0
-636 0
-637 0
638 0
-639 0
640 0
641 0
642 0
643 0
644 0
645 0
646 0
647 0
-648 0
-649 0
650 0
-651 0
-652 0
653 0
-654 0
655 0
-656 0
-657 0
658 0
659 0
660 0
-661 0
-662 0
-663 0
-664 0
665 0
-666 0
-667 0
-668 0
669 0
-670 0
671 0
-672 0
-673 0
-674 0
675 0
676 0
-677 0
-678 0
-679 0
680 0
-681 0
-682 0
-683 0
684 0
-685 0
686 0
687 0
-688 0
689 0
-690 0
691 0
-692 0
-693 0
-694 0
-695 0
-696 0
697 0
698 0
-699 0
700 0
701 0
-702 0
-703 0
704 0
705 0
706 0
-707 0
708 0
-709 0
710 0
-711 0
712 0
713 0
-714 0
-715 0
716 0
717 0
-718 0
719 0
720 0
721 0
722 0
-723 0
-724 0
-725 0
-726 0
-727 0
728 0
729 0
730 0
731 0
732 0
733 0
-734 0
-735 0
-736 0
737 0
-738 0
-739 0
740 0
741 0
-742 0
-743 0
-744 0
745 0
-746 0
747 0
748 0
-749 0
-750 0
751 0
752 0
-753 0
-754 0
-755 0
-756 0
-757 0
758 0
759 0
760 0
761 0
762 0
-763 0
764 0
765 0
-766 0
767 0
-768 0
-647 -652 -801 0
647 652 -801 0
-647 652 801 0
647 -652 801 0
-801 -666 -769 0
801 666 -769 0
-801 666 769 0
801 -666 769 0
-648 -653 -802 0
648 653 -802 0
-648 653 802 0
648 -653 802 0
-802 -667 -770 0
802 667 -770 0
-802 667 770 0
802 -667 770 0
-649 -654 -803 0
649 654 -803 0
-649 654 803 0
649 -654 803 0
-803 -668 -771 0
803 668 -771 0
-803 668 771 0
803 -668 771 0
-650 -655 -804 0
650 655 -804 0
-650 655 804 0
650 -655 804 0
-804 -669 -772 0
804 669 -772 0
-804 669 772 0
804 -669 772 0
-651 -656 -805 0
651 656 -805 0
-651 656 805 0
651 -656 805 0
-805 -670 -773 0
805 670 -773 0
-805 670 773 0
805 -670 773 0
-652 -657 -806 0
652 657 -806 0
-652 657 806 0
652 -657 806 0
-806 -671 -774 0
806 671 -774 0
-806 671 774 0
806 -671 774 0
-653 -658 -807 0
653 658 -807 0
-653 658 807 0
653 -658 807 0
-807 -672 -775 0
807 672 -775 0
-807 672 775 0
807 -672 775 0
-654 -659 -808 0
654 659 -808 0
-654 659 808 0
654 -659 808 0
-808 -641 -776 0
808 641 -776 0
-808 641 776 0
808 -641 776 0
-655 -660 -809 0
655 660 -809 0
-655 660 809 0
655 -660 809 0
-809 -642 -777 0
809 642 -777 0
-809 642 777 0
809 -642 777 0
-656 -661 -810 0
656 661 -810 0
-656 661 810 0
656 -661 810 0
-810 -643 -778 0
810 643 -778 0
-810 643 778 0
810 -643 778 0
-657 -662 -811 0
657 662 -811 0
-657 662 811 0
657 -662 811 0
-811 -644 -779 0
811 644 -779 0
-811 644 779 0
811 -644 779 0
-658 -663 -812 0
658 663 -812 0
-658 663 812 0
658 -663 812 0
-812 -645 -780 0
812 645 -780 0
-812 645 780 0
812 -645 780 0
-659 -664 -813 0
659 664 -813 0
-659 664 813 0
659 -664 813 0
-813 -646 -781 0
813 646 -781 0
-813 646 781 0
813 -646 781 0
-660 -665 -814 0
660 665 -814 0
-660 665 814 0
660 -665 814 0
-814 -647 -782 0
814 647 -782 0
-814 647 782 0
814 -647 782 0
-661 -666 -815 0
661 666 -815 0
-661 666 815 0
661 -666 815 0
-815 -648 -783 0
815 648 -783 0
-815 648 783 0
815 -648 783 0
-662 -667 -816 0
662 667 -816 0
-662 667 816 0
662 -667 816 0
-816 -649 -784 0
816 649 -784 0
-816 649 784 0
816 -649 784 0
-663 -668 -817 0
663 668 -817 0
-663 668 817 0
663 -668 817 0
-817 -650 -785 0
817 650 -785 0
-817 650 785 0
817 -650 785 0
-664 -669 -818 0
664 669 -818 0
-664 669 818 0
664 -669 818 0
-818 -651 -786 0
818 651 -786 0
-818 651 786 0
818 -651 786 0
-665 -670 -819 0
665 670 -819 0
-665 670 819 0
665 -670 819 0
-819 -652 -787 0
819 652 -787 0
-819 652 787 0
819 -652 787 0
-666 -671 -820 0
666 671 -820 0
-666 671 820 0
666 -671 820 0
-820 -653 -788 0
820 653 -788 0
-820 653 788 0
820 -653 788 0
-667 -672 -821 0
667 672 -821 0
-667 672 821 0
667 -672 821 0
-821 -654 -789 0
821 654 -789 0
-821 654 789 0
821 -654 789 0
-668 -641 -822 0
668 641 -822 0
-668 641 822 0
668 -641 822 0
-822 -655 -790 0
822 655 -790 0
-822 655 790 0
822 -655 790 0
-669 -642 -823 0
669 642 -823 0
-669 642 823 0
669 -642 823 0
-823 -656 -791 0
823 656 -791 0
-823 656 791 0
823 -656 791 0
-670 -643 -824 0
670 643 -824 0
-670 643 824 0
670 -643 824 0
-824 -657 -792 0
824 657 -792 0
-824 657 792 0
824 -657 792 0
-671 -644 -825 0
671 644 -825 0
-671 644 825 0
671 -644 825 0
-825 -658 -793 0
825 658 -793 0
-825 658 793 0
825 -658 793 0
-672 -645 -826 0
672 645 -826 0
-672 645 826 0
672 -645 826 0
-826 -659 -794 0
826 659 -794 0
-826 659 794 0
826 -659 794 0
-641 -646 -827 0
641 646 -827 0
-641 646 827 0
641 -646 827 0
-827 -660 -795 0
827 660 -795 0
-827 660 795 0
827 -660 795 0
-642 -647 -828 0
642 647 -828 0
-642 647 828 0
642 -647 828 0
-828 -661 -796 0
828 661 -796 0
-828 661 796 0
828 -661 796 0
-643 -648 -829 0
643 648 -829 0
-643 648 829 0
643 -648 829 0
-829 -662 -797 0
829 662 -797 0
-829 662 797 0
829 -662 797 0
-644 -649 -830 0
644 649 -830 0
-644 649 830 0
644 -649 830 0
-830 -663 -798 0
830 663 -798 0
-830 663 798 0
830 -663 798 0
-645 -650 -831 0
645 650 -831 0
-645 650 831 0
645 -650 831 0
-831 -664 -799 0
831 664 -799 0
-831 664 799 0
831 -664 799 0
-646 -651 -832 0
646 651 -832 0
-646 651 832 0
646 -651 832 0
-832 -665 -800 0
832 665 -800 0
-832 665 800 0
832 -665 800 0
-641 -673 833 0
-641 673 -833 0
641 -705 833 0
641 705 -833 0
-642 -674 834 0
-642 674 -834 0
642 -706 834 0
642 706 -834 0
-643 -675 835 0
-643 675 -835 0
643 -707 835 0
643 707 -835 0
-644 -676 836 0
-644 676 -836 0
644 -708 836 0
644 708 -836 0
-645 -677 837 0
-645 677 -837 0
645 -709 837 0
645 709 -837 0
-646 -678 838 0
-646 678 -838 0
646 -710 838 0
646 710 -838 0
-647 -679 839 0
-647 679 -839 0
647 -711 839 0
647 711 -839 0
-648 -680 840 0
-648 680 -840 0
648 -712 840 0
648 712 -840 0
-649 -681 841 0
-649 681 -841 0
649 -713 841 0
649 713 -841 0
-650 -682 842 0
-650 682 -842 0
650 -714 842 0
650 714 -842 0
-651 -683 843 0
-651 683 -843 0
651 -715 843 0
651 715 -843 0
-652 -684 844 0
-652 684 -844 0
652 -716 844 0
652 716 -844 0
-653 -685 845 0
-653 685 -845 0
653 -717 845 0
653 717 -845 0
-654 -686 846 0
-654 686 -846 0
654 -718 846 0
654 718 -846 0
-655 -687 847 0
-655 687 -847 0
655 -719 847 0
655 719 -847 0
-656 -688 848 0
-656 688 -848 0
656 -720 848 0
656 720 -848 0
-657 -689 849 0
-657 689 -849 0
657 -721 849 0
657 721 -849 0
-658 -690 850 0
-658 690 -850 0
658 -722 850 0
658 722 -850 0
-659 -691 851 0
-659 691 -851 0
659 -723 851 0
659 723 -851 0
-660 -692 852 0
-660 692 -852 0
660 -724 852 0
660 724 -852 0
-661 -693 853 0
-661 693 -853 0
661 -725 853 0
661 725 -853 0
-662 -694 854 0
-662 694 -854 0
662 -726 854 0
662 726 -854 0
-663 -695 855 0
-663 695 -855 0
663 -727 855 0
663 727 -855 0
-664 -696 856 0
-664 696 -856 0
664 -728 856 0
664 728 -856 0
-665 -697 857 0
-665 697 -857 0
665 -729 857 0
665 729 -857 0
-666 -698 858 0
-666 698 -858 0
666 -730 858 0
666 730 -858 0
-667 -699 859 0
-667 699 -859 0
667 -731 859 0
667 731 -859 0
-668 -700 860 0
-668 700 -860 0
668 -732 860 0
668 732 -860 0
-669 -701 861 0
-669 701 -861 0
669 -733 861 0
669 733 -861 0
-670 -702 862 0
-670 702 -862 0
670 -734 862 0
670 734 -862 0
-671 -703 863 0
-671 703 -863 0
671 -735 863 0
671 735 -863 0
-672 -704 864 0
-672 704 -864 0
672 -736 864 0
672 736 -864 0
-737 -769 -865 0
737 769 -865 0
-737 769 865 0
737 -769 865 0
-737 -769 897 0
737 -897 0
769 -897 0
-738 -770 -898 0
738 770 -898 0
-738 770 898 0
738 -770 898 0
-898 -897 -866 0
898 897 -866 0
-898 897 866 0
898 -897 866 0
-738 -770 899 0
-738 -897 899 0
-770 -897 899 0
738 770 -899 0
738 897 -899 0
770 897 -899 0
-739 -771 -900 0
739 771 -900 0
-739 771 900 0
739 -771 900 0
-900 -899 -867 0
900 899 -867 0
-900 899 867 0
900 -899 867 0
-739 -771 901 0
-739 -899 901 0
-771 -899 901 0
739 771 -901 0
739 899 -901 0
771 899 -901 0
-740 -772 -902 0
740 772 -902 0
-740 772 902 0
740 -772 902 0
-902 -901 -868 0
902 901 -868 0
-902 901 868 0
902 -901 868 0
-740 -772 903 0
-740 -901 903 0
-772 -901 903 0
740 772 -903 0
740 901 -903 0
772 901 -903 0
-741 -773 -904 0
741 773 -904 0
-741 773 904 0
741 -773 904 0
-904 -903 -869 0
904 903 -869 0
-904 903 869 0
904 -903 869 0
-741 -773 905 0
-741 -903 905 0
-773 -903 905 0
741 773 -905 0
741 903 -905 0
773 903 -905 0
-742 -774 -906 0
742 774 -906 0
-742 774 906 0
742 -774 906 0
-906 -905 -870 0
906 905 -870 0
-906 905 870 0
906 -905 870 0
-742 -774 907 0
-742 -905 907 0
-774 -905 907 0
742 774 -907 0
742 905 -907 0
774 905 -907 0
-743 -775 -908 0
743 775 -908 0
-743 775 908 0
743 -775 908 0
-908 -907 -871 0
908 907 -871 0
-908 907 871 0
908 -907 871 0
-743 -775 909 0
-743 -907 909 0
-775 -907 909 0
743 775 -909 0
743 907 -909 0
775 907 -909 0
-744 -776 -910 0
744 776 -910 0
-744 776 910 0
744 -776 910 0
-910 -909 -872 0
910 909 -872 0
-910 909 872 0
910 -909 872 0
-744 -776 911 0
-744 -909 911 0
-776 -909 911 0
744 776 -911 0
744 909 -911 0
776 909 -911 0
-745 -777 -912 0
745 777 -912 0
-745 777 912 0
745 -777 912 0
-912 -911 -873 0
912 911 -873 0
-912 911 873 0
912 -911 873 0
-745 -777 913 0
-745 -911 913 0
-777 -911 913 0
745 777 -913 0
745 911 -913 0
777 911 -913 0
-746 -778 -914 0
746 778 -914 0
-746 778 914 0
746 -778 914 0
-914 -913 -874 0
914 913 -874 0
-914 913 874 0
914 -913 874 0
-746 -778 915 0
-746 -913 915 0
-778 -913 915 0
746 778 -915 0
746 913 -915 0
778 913 -915 0
-747 -779 -916 0
747 779 -916 0
-747 779 916 0
747 -779 916 0
-916 -915 -875 0
916 915 -875 0
-916 915 875 0
916 -915 875 0
-747 -779 917 0
-747 -915 917 0
-779 -915 917 0
747 779 -917 0
747 915 -917 0
779 915 -917 0
-748 -780 -918 0
748 780 -918 0
-748 780 918 0
748 -780 918 0
-918 -917 -876 0
918 917 -876 0
-918 917 876 0
918 -917 876 0
-748 -780 919 0
-748 -917 919 0
-780 -917 919 0
748 780 -919 0
748 917 -919 0
780 917 -919 0
-749 -781 -920 0
749 781 -920 0
-749 781 920 0
749 -781 920 0
-920 -919 -877 0
920 919 -877 0
-920 919 877 0
920 -919 877 0
-749 -781 921 0
-749 -919 921 0
-781 -919 921 0
749 781 -921 0
749 919 -921 0
781 919 -921 0
-750 -782 -922 0
750 782 -922 0
-750 782 922 0
750 -782 922 0
-922 -921 -878 0
922 921 -878 0
-922 921 878 0
922 -921 878 0
-750 -782 923 0
-750 -921 923 0
-782 -921 923 0
750 782 -923 0
750 921 -923 0
782 921 -923 0
-751 -783 -924 0
751 783 -924 0
-751 783 924 0
751 -783 924 0
-924 -923 -879 0
924 923 -879 0
-924 923 879 0
924 -923 879 0
-751 -783 925 0
-751 -923 925 0
-783 -923 925 0
751 783 -925 0
751 923 -925 0
783 923 -925 0
-752 -784 -926 0
752 784 -926 0
-752 784 926 0
752 -784 926 0
-926 -925 -880 0
926 925 -880 0
-926 925 880 0
926 -925 880 0
-752 -784 927 0
-752 -925 927 0
-784 -925 927 0
752 784 -927 0
752 925 -927 0
784 925 -927 0
-753 -785 -928 0
753 785 -928 0
-753 785 928 0
753 -785 928 0
-928 -927 -881 0
928 927 -881 0
-928 927 881 0
928 -927 881 0
-753 -785 929 0
-753 -927 929 0
-785 -927 929 0
753 785 -929 0
753 927 -929 0
785 927 -929 0
-754 -786 -930 0
754 786 -930 0
-754 786 930 0
754 -786 930 0
-930 -929 -882 0
930 929 -882 0
-930 929 882 0
930 -929 882 0
-754 -786 931 0
-754 -929 931 0
-786 -929 931 0
754 786 -931 0
754 929 -931 0
786 929 -931 0
-755 -787 -932 0
755 787 -932 0
-755 787 932 0
755 -787 932 0
-932 -931 -883 0
932 931 -883 0
-932 931 883 0
932 -931 883 0
-755 -787 933 0
-755 -931 933 0
-787 -931 933 0
755 787 -933 0
755 931 -933 0
787 931 -933 0
-756 -788 -934 0
756 788 -934 0
-756 788 934 0
756 -788 934 0
-934 -933 -884 0
934 933 -884 0
-934 933 884 0
934 -933 884 0
-756 -788 935 0
-756 -933 935 0
-788 -933 935 0
756 788 -935 0
756 933 -935 0
788 933 -935 0
-757 -789 -936 0
757 789 -936 0
-757 789 936 0
757 -789 936 0
-936 -935 -885 0
936 935 -885 0
-936 935 885 0
936 -935 885 0
-757 -789 937 0
-757 -935 937 0
-789 -935 937 0
757 789 -937 0
757 935 -937 0
789 935 -937 0
-758 -790 -938 0
758 790 -938 0
-758 790 938 0
758 -790 938 0
-938 -937 -886 0
938 937 -886 0
-938 937 886 0
938 -937 886 0
-758 -790 939 0
-758 -937 939 0
-790 -937 939 0
758 790 -939 0
758 937 -939 0
790 937 -939 0
-759 -791 -940 0
759 791 -940 0
-759 791 940 0
759 -791 940 0
-940 -939 -887 0
940 939 -887 0
-940 939 887 0
940 -939 887 0
-759 -791 941 0
-759 -939 941 0
-791 -939 941 0
759 791 -941 0
759 939 -941 0
791 939 -941 0
-760 -792 -942 0
760 792 -942 0
-760 792 942 0
760 -792 942 0
-942 -941 -888 0
942 941 -888 0
-942 941 888 0
942 -941 888 0
-760 -792 943 0
-760 -941 943 0
-792 -941 943 0
760 792 -943 0
760 941 -943 0
792 941 -943 0
-761 -793 -944 0
761 793 -944 0
-761 793 944 0
761 -793 944 0
-944 -943 -889 0
944 943 -889 0
-944 943 889 0
944 -943 889 0
-761 -793 945 0
-761 -943 945 0
-793 -943 945 0
761 793 -945 0
761 943 -945 0
793 943 -945 0
-762 -794 -946 0
762 794 -946 0
-762 794 946 0
762 -794 946 0
-946 -945 -890 0
946 945 -890 0
-946 945 890 0
946 -945 890 0
-762 -794 947 0
-762 -945 947 0
-794 -945 947 0
762 794 -947 0
762 945 -947 0
794 945 -947 0
-763 -795 -948 0
763 795 -948 0
-763 795 948 0
763 -795 948 0
-948 -947 -891 0
948 947 -891 0
-948 947 891 0
948 -947 891 0
-763 -795 949 0
-763 -947 949 0
-795 -947 949 0
763 795 -949 0
763 947 -949 0
795 947 -949 0
-764 -796 -950 0
764 796 -950 0
-764 796 950 0
764 -796 950 0
-950 -949 -892 0
950 949 -892 0
-950 949 892 0
950 -949 892 0
-764 -796 951 0
-764 -949 951 0
-796 -949 951 0
764 796 -951 0
764 949 -951 0
796 949 -951 0
-765 -797 -952 0
765 797 -952 0
-765 797 952 0
765 -797 952 0
-952 -951 -893 0
952 951 -893 0
-952 951 893 0
952 -951 893 0
-765 -797 953 0
-765 -951 953 0
-797 -951 953 0
765 797 -953 0
765 951 -953 0
797 951 -953 0
-766 -798 -954 0
766 798 -954 0
-766 798 954 0
766 -798 954 0
-954 -953 -894 0
954 953 -894 0
-954 953 894 0
954 -953 894 0
-766 -798 955 0
-766 -953 955 0
-798 -953 955 0
766 798 -955 0
766 953 -955 0
798 953 -955 0
-767 -799 -956 0
767 799 -956 0
-767 799 956 0
767 -799 956 0
-956 -955 -895 0
956 955 -895 0
-956 955 895 0
956 -955 895 0
-767 -799 957 0
-767 -955 957 0
-799 -955 957 0
767 799 -957 0
767 955 -957 0
799 955 -957 0
-768 -800 -958 0
768 800 -958 0
-768 800 958 0
768 -800 958 0
-958 -957 -896 0
958 957 -896 0
-958 957 896 0
958 -957 896 0
-833 -1 -959 0
833 1 -959 0
-833 1 959 0
833 -1 959 0
-833 -1 991 0
833 -991 0
1 -991 0
-834 -2 -992 0
834 2 -992 0
-834 2 992 0
834 -2 992 0
-992 -991 -960 0
992 991 -960 0
-992 991 960 0
992 -991 960 0
-834 -2 993 0
-834 -991 993 0
-2 -991 993 0
834 2 -993 0
834 991 -993 0
2 991 -993 0
-835 -3 -994 0
835 3 -994 0
-835 3 994 0
835 -3 994 0
-994 -993 -961 0
994 993 -961 0
-994 993 961 0
994 -993 961 0
-835 -3 995 0
-835 -993 995 0
-3 -993 995 0
835 3 -995 0
835 993 -995 0
3 993 -995 0
-836 -4 -996 0
836 4 -996 0
-836 4 996 0
836 -4 996 0
-996 -995 -962 0
996 995 -962 0
-996 995 962 0
996 -995 962 0
-836 -4 997 0
-836 -995 997 0
-4 -995 997 0
836 4 -997 0
836 995 -997 0
4 995 -997 0
-837 -5 -998 0
837 5 -998 0
-837 5 998 0
837 -5 998 0
-998 -997 -963 0
998 997 -963 0
-998 997 963 0
998 -997 963 0
-837 -5 999 0
-837 -997 999 0
-5 -997 999 0
837 5 -999 0
837 997 -999 0
5 997 -999 0
-838 -6 -1000 0
838 6 -1000 0
-838 6 1000 0
838 -6 1000 0
-1000 -999 -964 0
1000 999 -964 0
-1000 999 964 0
1000 -999 964 0
-838 -6 1001 0
-838 -999 1001 0
-6 -999 1001 0
838 6 -1001 0
838 999 -1001 0
6 999 -1001 0
-839 -7 -1002 0
839 7 -1002 0
-839 7 1002 0
839 -7 1002 0
-1002 -1001 -965 0
1002 1001 -965 0
-1002 1001 965 0
1002 -1001 965 0
-839 -7 1003 0
-839 -1001 1003 0
-7 -1001 1003 0
839 7 -1003 0
839 1001 -1003 0
7 1001 -1003 0
-840 -8 -1004 0
840 8 -1004 0
-840 8 1004 0
840 -8 1004 0
-1004 -1003 -966 0
1004 1003 -966 0
-1004 1003 966 0
1004 -1003 966 0
-840 -8 1005 0
-840 -1003 1005 0
-8 -1003 1005 0
840 8 -1005 0
840 1003 -1005 0
8 1003 -1005 0
-841 -9 -1006 0
841 9 -1006 0
-841 9 1006 0
841 -9 1006 0
-1006 -1005 -967 0
1006 1005 -967 0
-1006 1005 967 0
1006 -1005 967 0
-841 -9 1007 0
-841 -1005 1007 0
-9 -1005 1007 0
841 9 -1007 0
841 1005 -1007 0
9 1005 -1007 0
-842 -10 -1008 0
842 10 -1008 0
-842 10 1008 0
842 -10 1008 0
-1008 -1007 -968 0
1008 1007 -968 0
-1008 1007 968 0
1008 -1007 968 0
-842 -10 1009 0
-842 -1007 1009 0
-10 -1007 1009 0
842 10 -1009 0
842 1007 -1009 0
10 1007 -1009 0
-843 -11 -1010 0
843 11 -1010 0
-843 11 1010 0
843 -11 1010 0
-1010 -1009 -969 0
1010 1009 -969 0
-1010 1009 969 0
1010 -1009 969 0
-843 -11 1011 0
-843 -1009 1011 0
-11 -1009 1011 0
843 11 -1011 0
843 1009 -1011 0
11 1009 -1011 0
-844 -12 -1012 0
844 12 -1012 0
-844 12 1012 0
844 -12 1012 0
-1012 -1011 -970 0
1012 1011 -970 0
-1012 1011 970 0
1012 -1011 970 0
-844 -12 1013 0
-844 -1011 1013 0
-12 -1011 1013 0
844 12 -1013 0
844 1011 -1013 0
12 1011 -1013 0
-845 -13 -1014 0
845 13 -1014 0
-845 13 1014 0
845 -13 1014 0
-1014 -1013 -971 0
1014 1013 -971 0
-1014 1013 971 0
1014 -1013 971 0
-845 -13 1015 0
-845 -1013 1015 0
-13 -1013 1015 0
845 13 -1015 0
845 1013 -1015 0
13 1013 -1015 0
-846 -14 -1016 0
846 14 -1016 0
-846 14 1016 0
846 -14 1016 0
-1016 -1015 -972 0
1016 1015 -972 0
-1016 1015 972 0
1016 -1015 972 0
-846 -14 1017 0
-846 -1015 1017 0
-14 -1015 1017 0
846 14 -1017 0
846 1015 -1017 0
14 1015 -1017 0
-847 -15 -1018 0
847 15 -1018 0
-847 15 1018 0
847 -15 1018 0
-1018 -1017 -973 0
1018 1017 -973 0
-1018 1017 973 0
1018 -1017 973 0
-847 -15 1019 0
-847 -1017 1019 0
-15 -1017 1019 0
847 15 -1019 0
847 1017 -1019 0
15 1017 -1019 0
-848 -16 -1020 0
848 16 -1020 0
-848 16 1020 0
848 -16 1020 0
-1020 -1019 -974 0
1020 1019 -974 0
-1020 1019 974 0
1020 -1019 974 0
-848 -16 1021 0
-848 -1019 1021 0
-16 -1019 1021 0
848 16 -1021 0
848 1019 -1021 0
16 1019 -1021 0
-849 -17 -1022 0
849 17 -1022 0
-849 17 1022 0
849 -17 1022 0
-1022 -1021 -975 0
1022 1021 -975 0
-1022 1021 975 0
1022 -1021 975 0
-849 -17 1023 0
-849 -1021 1023 0
-17 -1021 1023 0
849 17 -1023 0
849 1021 -1023 0
17 1021 -1023 0
-850 -18 -1024 0
850 18 -1024 0
-850 18 1024 0
850 -18 1024 0
-1024 -1023 -976 0
1024 1023 -976 0
-1024 1023 976 0
1024 -1023 976 0
-850 -18 1025 0
-850 -1023 1025 0
-18 -1023 1025 0
850 18 -1025 0
850 1023 -1025 0
18 1023 -1025 0
-851 -19 -1026 0
851 19 -1026 0
-851 19 1026 0
851 -19 1026 0
-1026 -1025 -977 0
1026 1025 -977 0
-1026 1025 977 0
1026 -1025 977 0
-851 -19 1027 0
-851 -1025 1027 0
-19 -1025 1027 0
851 19 -1027 0
851 1025 -1027 0
19 1025 -1027 0
-852 -20 -1028 0
852 20 -1028 0
-852 20 1028 0
852 -20 1028 0
-1028 -1027 -978 0
1028 1027 -978 0
-1028 1027 978 0
1028 -1027 978 0
-852 -20 1029 0
-852 -1027 1029 0
-20 -1027 1029 0
852 20 -1029 0
852 1027 -1029 0
20 1027 -1029 0
-853 -21 -1030 0
853 21 -1030 0
-853 21 1030 0
853 -21 1030 0
-1030 -1029 -979 0
1030 1029 -979 0
-1030 1029 979 0
1030 -1029 979 0
-853 -21 1031 0
-853 -1029 1031 0
-21 -1029 1031 0
853 21 -1031 0
853 1029 -1031 0
21 1029 -1031 0
-854 -22 -1032 0
854 22 -1032 0
-854 22 1032 0
854 -22 1032 0
-1032 -1031 -980 0
1032 1031 -980 0
-1032 1031 980 0
1032 -1031 980 0
-854 -22 1033 0
-854 -1031 1033 0
-22 -1031 1033 0
854 22 -1033 0
854 1031 -1033 0
22 1031 -1033 0
-855 -23 -1034 0
855 23 -1034 0
-855 23 1034 0
855 -23 1034 0
-1034 -1033 -981 0
1034 1033 -981 0
-1034 1033 981 0
1034 -1033 981 0
-855 -23 1035 0
-855 -1033 1035 0
-23 -1033 1035 0
855 23 -1035 0
855 1033 -1035 0
23 1033 -1035 0
-856 -24 -1036 0
856 24 -1036 0
-856 24 1036 0
856 -24 1036 0
-1036 -1035 -982 0
1036 1035 -982 0
-1036 1035 982 0
1036 -1035 982 0
-856 -24 1037 0
-856 -1035 1037 0
-24 -1035 1037 0
856 24 -1037 0
856 1035 -1037 0
24 1035 -1037 0
-857 -25 -1038 0
857 25 -1038 0
-857 25 1038 0
857 -25 1038 0
-1038 -1037 -983 0
1038 1037 -983 0
-1038 1037 983 0
1038 -1037 983 0
-857 -25 1039 0
-857 -1037 1039 0
-25 -1037 1039 0
857 25 -1039 0
857 1037 -1039 0
25 1037 -1039 0
-858 -26 -1040 0
858 26 -1040 0
-858 26 1040 0
858 -26 1040 0
-1040 -1039 -984 0
1040 1039 -984 0
-1040 1039 984 0
1040 -1039 984 0
-858 -26 1041 0
-858 -1039 1041 0
-26 -1039 1041 0
858 26 -1041 0
858 1039 -1041 0
26 1039 -1041 0
-859 -27 -1042 0
859 27 -1042 0
-859 27 1042 0
859 -27 1042 0
-1042 -1041 -985 0
1042 1041 -985 0
-1042 1041 985 0
1042 -1041 985 0
-859 -27 1043 0
-859 -1041 1043 0
-27 -1041 1043 0
859 27 -1043 0
859 1041 -1043 0
27 1041 -1043 0
-860 -28 -1044 0
860 28 -1044 0
-860 28 1044 0
860 -28 1044 0
-1044 -1043 -986 0
1044 1043 -986 0
-1044 1043 986 0
1044 -1043 986 0
-860 -28 1045 0
-860 -1043 1045 0
-28 -1043 1045 0
860 28 -1045 0
860 1043 -1045 0
28 1043 -1045 0
-861 -29 -1046 0
861 29 -1046 0
-861 29 1046 0
861 -29 1046 0
-1046 -1045 -987 0
1046 1045 -987 0
-1046 1045 987 0
1046 -1045 987 0
-861 -29 1047 0
-861 -1045 1047 0
-29 -1045 1047 0
861 29 -1047 0
861 1045 -1047 0
29 1045 -1047 0
-862 -30 -1048 0
862 30 -1048 0
-862 30 1048 0
862 -30 1048 0
-1048 -1047 -988 0
1048 1047 -988 0
-1048 1047 988 0
1048 -1047 988 0
-862 -30 1049 0
-862 -1047 1049 0
-30 -1047 1049 0
862 30 -1049 0
862 1047 -1049 0
30 1047 -1049 0
-863 -31 -1050 0
863 31 -1050 0
-863 31 1050 0
863 -31 1050 0
-1050 -1049 -989 0
1050 1049 -989 0
-1050 1049 989 0
1050 -1049 989 0
-863 -31 1051 0
-863 -1049 1051 0
-31 -1049 1051 0
863 31 -1051 0
863 1049 -1051 0
31 1049 -1051 0
-864 -32 -1052 0
864 32 -1052 0
-864 32 1052 0
864 -32 1052 0
-1052 -1051 -990 0
1052 1051 -990 0
-1052 1051 990 0
1052 -1051 990 0
-1053 0
-1054 0
-1055 0
1056 0
1057 0
-1058 0
-1059 0
1060 0
1061 0
1062 0
1063 0
1064 0
-1065 0
1066 0
-1067 0
-1068 0
-1069 0
1070 0
-1071 0
1072 0
-1073 0
-1074 0
-1075 0
1076 0
-1077 0
1078 0
-1079 0
-1080 0
-1081 0
-1082 0
1083 0
-1084 0
-865 -1053 -1085 0
865 1053 -1085 0
-865 1053 1085 0
865 -1053 1085 0
-865 -1053 1117 0
865 -1117 0
1053 -1117 0
-866 -1054 -1118 0
866 1054 -1118 0
-866 1054 1118 0
866 -1054 1118 0
-1118 -1117 -1086 0
1118 1117 -1086 0
-1118 1117 1086 0
1118 -1117 1086 0
-866 -1054 1119 0
-866 -1117 1119 0
-1054 -1117 1119 0
866 1054 -1119 0
866 1117 -1119 0
1054 1117 -1119 0
-867 -1055 -1120 0
867 1055 -1120 0
-867 1055 1120 0
867 -1055 1120 0
-1120 -1119 -1087 0
1120 1119 -1087 0
-1120 1119 1087 0
1120 -1119 1087 0
-867 -1055 1121 0
-867 -1119 1121 0
-1055 -1119 1121 0
867 1055 -1121 0
867 1119 -1121 0
1055 1119 -1121 0
-868 -1056 -1122 0
868 1056 -1122 0
-868 1056 1122 0
868 -1056 1122 0
-1122 -1121 -1088 0
1122 1121 -1088 0
-1122 1121 1088 0
1122 -1121 1088 0
-868 -1056 1123 0
-868 -1121 1123 0
-1056 -1121 1123 0
868 1056 -1123 0
868 1121 -1123 0
1056 1121 -1123 0
-869 -1057 -1124 0
869 1057 -1124 0
-869 1057 1124 0
869 -1057 1124 0
-1124 -1123 -1089 0
1124 1123 -1089 0
-1124 1123 1089 0
1124 -1123 1089 0
-869 -1057 1125 0
-869 -1123 1125 0
-1057 -1123 1125 0
869 1057 -1125 0
869 1123 -1125 0
1057 1123 -1125 0
-870 -1058 -1126 0
870 1058 -1126 0
-870 1058 1126 0
870 -1058 1126 0
-1126 -1125 -1090 0
1126 1125 -1090 0
-1126 1125 1090 0
1126 -1125 1090 0
-870 -1058 1127 0
-870 -1125 1127 0
-1058 -1125 1127 0
870 1058 -1127 0
870 1125 -1127 0
1058 1125 -1127 0
-871 -1059 -1128 0
871 1059 -1128 0
-871 1059 1128 0
871 -1059 1128 0
-1128 -1127 -1091 0
1128 1127 -1091 0
-1128 1127 1091 0
1128 -1127 1091 0
-871 -1059 1129 0
-871 -1127 1129 0
-1059 -1127 1129 0
871 1059 -1129 0
871 1127 -1129 0
1059 1127 -1129 0
-872 -1060 -1130 0
872 1060 -1130 0
-872 1060 1130 0
872 -1060 1130 0
-1130 -1129 -1092 0
1130 1129 -1092 0
-1130 1129 1092 0
1130 -1129 1092 0
-872 -1060 1131 0
-872 -1129 1131 0
-1060 -1129 1131 0
872 1060 -1131 0
872 1129 -1131 0
1060 1129 -1131 0
-873 -1061 -1132 0
873 1061 -1132 0
-873 1061 1132 0
873 -1061 1132 0
-1132 -1131 -1093 0
1132 1131 -1093 0
-1132 1131 1093 0
1132 -1131 1093 0
-873 -1061 1133 0
-873 -1131 1133 0
-1061 -1131 1133 0
873 1061 -1133 0
873 1131 -1133 0
1061 1131 -1133 0
-874 -1062 -1134 0
874 1062 -1134 0
-874 1062 1134 0
874 -1062 1134 0
-1134 -1133 -1094 0
1134 1133 -1094 0
-1134 1133 1094 0
1134 -1133 1094 0
-874 -1062 1135 0
-874 -1133 1135 0
-1062 -1133 1135 0
874 1062 -1135 0
874 1133 -1135 0
1062 1133 -1135 0
-875 -1063 -1136 0
875 1063 -1136 0
-875 1063 1136 0
875 -1063 1136 0
-1136 -1135 -1095 0
1136 1135 -1095 0
-1136 1135 1095 0
1136 -1135 1095 0
-875 -1063 1137 0
-875 -1135 1137 0
-1063 -1135 1137 0
875 1063 -1137 0
875 1135 -1137 0
1063 1135 -1137 0
-876 -1064 -1138 0
876 1064 -1138 0
-876 1064 1138 0
876 -1064 1138 0
-1138 -1137 -1096 0
1138 1137 -1096 0
-1138 1137 1096 0
1138 -1137 1096 0
-876 -1064 1139 0
-876 -1137 1139 0
-1064 -1137 1139 0
876 1064 -1139 0
876 1137 -1139 0
1064 1137 -1139 0
-877 -1065 -1140 0
877 1065 -1140 0
-877 1065 1140 0
877 -1065 1140 0
-1140 -1139 -1097 0
1140 1139 -1097 0
-1140 1139 1097 0
1140 -1139 1097 0
-877 -1065 1141 0
-877 -1139 1141 0
-1065 -1139 1141 0
877 1065 -1141 0
877 1139 -1141 0
1065 1139 -1141 0
-878 -1066 -1142 0
878 1066 -1142 0
-878 1066 1142 0
878 -1066 1142 0
-1142 -1141 -1098 0
1142 1141 -1098 0
-1142 1141 1098 0
1142 -1141 1098 0
-878 -1066 1143 0
-878 -1141 1143 0
-1066 -1141 1143 0
878 1066 -1143 0
878 1141 -1143 0
1066 1141 -1143 0
-879 -1067 -1144 0
879 1067 -1144 0
-879 1067 1144 0
879 -1067 1144 0
-1144 -1143 -1099 0
1144 1143 -1099 0
-1144 1143 1099 0
1144 -1143 1099 0
-879 -1067 1145 0
-879 -1143 1145 0
-1067 -1143 1145 0
879 1067 -1145 0
879 1143 -1145 0
1067 1143 -1145 0
-880 -1068 -1146 0
880 1068 -1146 0
-880 1068 1146 0
880 -1068 1146 0
-1146 -1145 -1100 0
1146 1145 -1100 0
-1146 1145 1100 0
1146 -1145 1100 0
-880 -1068 1147 0
-880 -1145 1147 0
-1068 -1145 1147 0
880 1068 -1147 0
880 1145 -1147 0
1068 1145 -1147 0
-881 -1069 -1148 0
881 1069 -1148 0
-881 1069 1148 0
881 -1069 1148 0
-1148 -1147 -1101 0
1148 1147 -1101 0
-1148 1147 1101 0
1148 -1147 1101 0
-881 -1069 1149 0
-881 -1147 1149 0
-1069 -1147 1149 0
881 1069 -1149 0
881 1147 -1149 0
1069 1147 -1149 0
-882 -1070 -1150 0
882 1070 -1150 0
-882 1070 1150 0
882 -1070 1150 0
-1150 -1149 -1102 0
1150 1149 -1102 0
-1150 1149 1102 0
1150 -1149 1102 0
-882 -1070 1151 0
-882 -1149 1151 0
-1070 -1149 1151 0
882 1070 -1151 0
882 1149 -1151 0
1070 1149 -1151 0
-883 -1071 -1152 0
883 1071 -1152 0
-883 1071 1152 0
883 -1071 1152 0
-1152 -1151 -1103 0
1152 1151 -1103 0
-1152 1151 1103 0
1152 -1151 1103 0
-883 -1071 1153 0
-883 -1151 1153 0
-1071 -1151 1153 0
883 1071 -1153 0
883 1151 -1153 0
1071 1151 -1153 0
-884 -1072 -1154 0
884 1072 -1154 0
-884 1072 1154 0
884 -1072 1154 0
-1154 -1153 -1104 0
1154 1153 -1104 0
-1154 1153 1104 0
1154 -1153 1104 0
-884 -1072 1155 0
-884 -1153 1155 0
-1072 -1153 1155 0
884 1072 -1155 0
884 1153 -1155 0
1072 1153 -1155 0
-885 -1073 -1156 0
885 1073 -1156 0
-885 1073 1156 0
885 -1073 1156 0
-1156 -1155 -1105 0
1156 1155 -1105 0
-1156 1155 1105 0
1156 -1155 1105 0
-885 -1073 1157 0
-885 -1155 1157 0
-1073 -1155 1157 0
885 1073 -1157 0
885 1155 -1157 0
1073 1155 -1157 0
-886 -1074 -1158 0
886 1074 -1158 0
-886 1074 1158 0
886 -1074 1158 0
-1158 -1157 -1106 0
1158 1157 -1106 0
-1158 1157 1106 0
1158 -1157 1106 0
-886 -1074 1159 0
-886 -1157 1159 0
-1074 -1157 1159 0
886 1074 -1159 0
886 1157 -1159 0
1074 1157 -1159 0
-887 -1075 -1160 0
887 1075 -1160 0
-887 1075 1160 0
887 -1075 1160 0
-1160 -1159 -1107 0
1160 1159 -1107 0
-1160 1159 1107 0
1160 -1159 1107 0
-887 -1075 1161 0
-887 -1159 1161 0
-1075 -1159 1161 0
887 1075 -1161 0
887 1159 -1161 0
1075 1159 -1161 0
-888 -1076 -1162 0
888 1076 -1162 0
-888 1076 1162 0
888 -1076 1162 0
-1162 -1161 -1108 0
1162 1161 -1108 0
-1162 1161 1108 0
1162 -1161 1108 0
-888 -1076 1163 0
-888 -1161 1163 0
-1076 -1161 1163 0
888 1076 -1163 0
888 1161 -1163 0
1076 1161 -1163 0
-889 -1077 -1164 0
889 1077 -1164 0
-889 1077 1164 0
889 -1077 1164 0
-1164 -1163 -1109 0
1164 1163 -1109 0
-1164 1163 1109 0
1164 -1163 1109 0
-889 -1077 1165 0
-889 -1163 1165 0
-1077 -1163 1165 0
889 1077 -1165 0
889 1163 -1165 0
1077 1163 -1165 0
-890 -1078 -1166 0
890 1078 -1166 0
-890 1078 1166 0
890 -1078 1166 0
-1166 -1165 -1110 0
1166 1165 -1110 0
-1166 1165 1110 0
1166 -1165 1110 0
-890 -1078 1167 0
-890 -1165 1167 0
-1078 -1165 1167 0
890 1078 -1167 0
890 1165 -1167 0
1078 1165 -1167 0
-891 -1079 -1168 0
891 1079 -1168 0
-891 1079 1168 0
891 -1079 1168 0
-1168 -1167 -1111 0
1168 1167 -1111 0
-1168 1167 1111 0
1168 -1167 1111 0
-891 -1079 1169 0
-891 -1167 1169 0
-1079 -1167 1169 0
891 1079 -1169 0
891 1167 -1169 0
1079 1167 -1169 0
-892 -1080 -1170 0
892 1080 -1170 0
-892 1080 1170 0
892 -1080 1170 0
-1170 -1169 -1112 0
1170 1169 -1112 0
-1170 1169 1112 0
1170 -1169 1112 0
-892 -1080 1171 0
-892 -1169 1171 0
-1080 -1169 1171 0
892 1080 -1171 0
892 1169 -1171 0
1080 1169 -1171 0
-893 -1081 -1172 0
893 1081 -1172 0
-893 1081 1172 0
893 -1081 1172 0
-1172 -1171 -1113 0
1172 1171 -1113 0
-1172 1171 1113 0
1172 -1171 1113 0
-893 -1081 1173 0
-893 -1171 1173 0
-1081 -1171 1173 0
893 1081 -1173 0
893 1171 -1173 0
1081 1171 -1173 0
-894 -1082 -1174 0
894 1082 -1174 0
-894 1082 1174 0
894 -1082 1174 0
-1174 -1173 -1114 0
1174 1173 -1114 0
-1174 1173 1114 0
1174 -1173 1114 0
-894 -1082 1175 0
-894 -1173 1175 0
-1082 -1173 1175 0
894 1082 -1175 0
894 1173 -1175 0
1082 1173 -1175 0
-895 -1083 -1176 0
895 1083 -1176 0
-895 1083 1176 0
895 -1083 1176 0
-1176 -1175 -1115 0
1176 1175 -1115 0
-1176 1175 1115 0
1176 -1175 1115 0
-895 -1083 1177 0
-895 -1175 1177 0
-1083 -1175 1177 0
895 1083 -1177 0
895 1175 -1177 0
1083 1175 -1177 0
-896 -1084 -1178 0
896 1084 -1178 0
-896 1084 1178 0
896 -1084 1178 0
-1178 -1177 -1116 0
1178 1177 -1116 0
-1178 1177 1116 0
1178 -1177 1116 0
-959 -1085 -1179 0
959 1085 -1179 0
-959 1085 1179 0
959 -1085 1179 0
-959 -1085 1211 0
959 -1211 0
1085 -1211 0
-960 -1086 -1212 0
960 1086 -1212 0
-960 1086 1212 0
960 -1086 1212 0
-1212 -1211 -1180 0
1212 1211 -1180 0
-1212 1211 1180 0
1212 -1211 1180 0
-960 -1086 1213 0
-960 -1211 1213 0
-1086 -1211 1213 0
960 1086 -1213 0
960 1211 -1213 0
1086 1211 -1213 0
-961 -1087 -1214 0
961 1087 -1214 0
-961 1087 1214 0
961 -1087 1214 0
-1214 -1213 -1181 0
1214 1213 -1181 0
-1214 1213 1181 0
1214 -1213 1181 0
-961 -1087 1215 0
-961 -1213 1215 0
-1087 -1213 1215 0
961 1087 -1215 0
961 1213 -1215 0
1087 1213 -1215 0
-962 -1088 -1216 0
962 1088 -1216 0
-962 1088 1216 0
962 -1088 1216 0
-1216 -1215 -1182 0
1216 1215 -1182 0
-1216 1215 1182 0
1216 -1215 1182 0
-962 -1088 1217 0
-962 -1215 1217 0
-1088 -1215 1217 0
962 1088 -1217 0
962 1215 -1217 0
1088 1215 -1217 0
-963 -1089 -1218 0
963 1089 -1218 0
-963 1089 1218 0
963 -1089 1218 0
-1218 -1217 -1183 0
1218 1217 -1183 0
-1218 1217 1183 0
1218 -1217 1183 0
-963 -1089 1219 0
-963 -1217 1219 0
-1089 -1217 1219 0
963 1089 -1219 0
963 1217 -1219 0
1089 1217 -1219 0
-964 -1090 -1220 0
964 1090 -1220 0
-964 1090 1220 0
964 -1090 1220 0
-1220 -1219 -1184 0
1220 1219 -1184 0
-1220 1219 1184 0
1220 -1219 1184 0
-964 -1090 1221 0
-964 -1219 1221 0
-1090 -1219 1221 0
964 1090 -1221 0
964 1219 -1221 0
1090 1219 -1221 0
-965 -1091 -1222 0
965 1091 -1222 0
-965 1091 1222 0
965 -1091 1222 0
-1222 -1221 -1185 0
1222 1221 -1185 0
-1222 1221 1185 0
1222 -1221 1185 0
-965 -1091 1223 0
-965 -1221 1223 0
-1091 -1221 1223 0
965 1091 -1223 0
965 1221 -1223 0
1091 1221 -1223 0
-966 -1092 -1224 0
966 1092 -1224 0
-966 1092 1224 0
966 -1092 1224 0
-1224 -1223 -1186 0
1224 1223 -1186 0
-1224 1223 1186 0
1224 -1223 1186 0
-966 -1092 1225 0
-966 -1223 1225 0
-1092 -1223 1225 0
966 1092 -1225 0
966 1223 -1225 0
1092 1223 -1225 0
-967 -1093 -1226 0
967 1093 -1226 0
-967 1093 1226 0
967 -1093 1226 0
-1226 -1225 -1187 0
1226 1225 -1187 0
-1226 1225 1187 0
1226 -1225 1187 0
-967 -1093 1227 0
-967 -1225 1227 0
-1093 -1225 1227 0
967 1093 -1227 0
967 1225 -1227 0
1093 1225 -1227 0
-968 -1094 -1228 0
968 1094 -1228 0
-968 1094 1228 0
968 -1094 1228 0
-1228 -1227 -1188 0
1228 1227 -1188 0
-1228 1227 1188 0
1228 -1227 1188 0
-968 -1094 1229 0
-968 -1227 1229 0
-1094 -1227 1229 0
968 1094 -1229 0
968 1227 -1229 0
1094 1227 -1229 0
-969 -1095 -1230 0
969 1095 -1230 0
-969 1095 1230 0
969 -1095 1230 0
-1230 -1229 -1189 0
1230 1229 -1189 0
-1230 1229 1189 0
1230 -1229 1189 0
-969 -1095 1231 0
-969 -1229 1231 0
-1095 -1229 1231 0
969 1095 -1231 0
969 1229 -1231 0
1095 1229 -1231 0
-970 -1096 -1232 0
970 1096 -1232 0
-970 1096 1232 0
970 -1096 1232 0
-1232 -1231 -1190 0
1232 1231 -1190 0
-1232 1231 1190 0
1232 -1231 1190 0
-970 -1096 1233 0
-970 -1231 1233 0
-1096 -1231 1233 0
970 1096 -1233 0
970 1231 -1233 0
1096 1231 -1233 0
-971 -1097 -1234 0
971 1097 -1234 0
-971 1097 1234 0
971 -1097 1234 0
-1234 -1233 -1191 0
1234 1233 -1191 0
-1234 1233 1191 0
1234 -1233 1191 0
-971 -1097 1235 0
-971 -1233 1235 0
-1097 -1233 1235 0
971 1097 -1235 0
971 1233 -1235 0
1097 1233 -1235 0
-972 -1098 -1236 0
972 1098 -1236 0
-972 1098 1236 0
972 -1098 1236 0
-1236 -1235 -1192 0
1236 1235 -1192 0
-1236 1235 1192 0
1236 -1235 1192 0
-972 -1098 1237 0
-972 -1235 1237 0
-1098 -1235 1237 0
972 1098 -1237 0
972 1235 -1237 0
1098 1235 -1237 0
-973 -1099 -1238 0
973 1099 -1238 0
-973 1099 1238 0
973 -1099 1238 0
-1238 -1237 -1193 0
1238 1237 -1193 0
-1238 1237 1193 0
1238 -1237 1193 0
-973 -1099 1239 0
-973 -1237 1239 0
-1099 -1237 1239 0
973 1099 -1239 0
973 1237 -1239 0
1099 1237 -1239 0
-974 -1100 -1240 0
974 1100 -1240 0
-974 1100 1240 0
974 -1100 1240 0
-1240 -1239 -1194 0
1240 1239 -1194 0
-1240 1239 1194 0
1240 -1239 1194 0
-974 -1100 1241 0
-974 -1239 1241 0
-1100 -1239 1241 0
974 1100 -1241 0
974 1239 -1241 0
1100 1239 -1241 0
-975 -1101 -1242 0
975 1101 -1242 0
-975 1101 1242 0
975 -1101 1242 0
-1242 -1241 -1195 0
1242 1241 -1195 0
-1242 1241 1195 0
1242 -1241 1195 0
-975 -1101 1243 0
-975 -1241 1243 0
-1101 -1241 1243 0
975 1101 -1243 0
975 1241 -1243 0
1101 1241 -1243 0
-976 -1102 -1244 0
976 1102 -1244 0
-976 1102 1244 0
976 -1102 1244 0
-1244 -1243 -1196 0
1244 1243 -1196 0
-1244 1243 1196 0
1244 -1243 1196 0
-976 -1102 1245 0
-976 -1243 1245 0
-1102 -1243 1245 0
976 1102 -1245 0
976 1243 -1245 0
1102 1243 -1245 0
-977 -1103 -1246 0
977 1103 -1246 0
-977 1103 1246 0
977 -1103 1246 0
-1246 -1245 -1197 0
1246 1245 -1197 0
-1246 1245 1197 0
1246 -1245 1197 0
-977 -1103 1247 0
-977 -1245 1247 0
-1103 -1245 1247 0
977 1103 -1247 0
977 1245 -1247 0
1103 1245 -1247 0
-978 -1104 -1248 0
978 1104 -1248 0
-978 1104 1248 0
978 -1104 1248 0
-1248 -1247 -1198 0
1248 1247 -1198 0
-1248 1247 1198 0
1248 -1247 1198 0
-978 -1104 1249 0
-978 -1247 1249 0
-1104 -1247 1249 0
978 1104 -1249 0
978 1247 -1249 0
1104 1247 -1249 0
-979 -1105 -1250 0
979 1105 -1250 0
-979 1105 1250 0
979 -1105 1250 0
-1250 -1249 -1199 0
1250 1249 -1199 0
-1250 1249 1199 0
1250 -1249 1199 0
-979 -1105 1251 0
-979 -1249 1251 0
-1105 -1249 1251 0
979 1105 -1251 0
979 1249 -1251 0
1105 1249 -1251 0
-980 -1106 -1252 0
980 1106 -1252 0
-980 1106 1252 0
980 -1106 1252 0
-1252 -1251 -1200 0
1252 1251 -1200 0
-1252 1251 1200 0
1252 -1251 1200 0
-980 -1106 1253 0
-980 -1251 1253 0
-1106 -1251 1253 0
980 1106 -1253 0
980 1251 -1253 0
1106 1251 -1253 0
-981 -1107 -1254 0
981 1107 -1254 0
-981 1107 1254 0
981 -1107 1254 0
-1254 -1253 -1201 0
1254 1253 -1201 0
-1254 1253 1201 0
1254 -1253 1201 0
-981 -1107 1255 0
-981 -1253 1255 0
-1107 -1253 1255 0
981 1107 -1255 0
981 1253 -1255 0
1107 1253 -1255 0
-982 -1108 -1256 0
982 1108 -1256 0
-982 1108 1256 0
982 -1108 1256 0
-1256 -1255 -1202 0
1256 1255 -1202 0
-1256 1255 1202 0
1256 -1255 1202 0
-982 -1108 1257 0
-982 -1255 1257 0
-1108 -1255 1257 0
982 1108 -1257 0
982 1255 -1257 0
1108 1255 -1257 0
-983 -1109 -1258 0
983 1109 -1258 0
-983 1109 1258 0
983 -1109 1258 0
-1258 -1257 -1203 0
1258 1257 -1203 0
-1258 1257 1203 0
1258 -1257 1203 0
-983 -1109 1259 0
-983 -1257 1259 0
-1109 -1257 1259 0
983 1109 -1259 0
983 1257 -1259 0
1109 1257 -1259 0
-984 -1110 -1260 0
984 1110 -1260 0
-984 1110 1260 0
984 -1110 1260 0
-1260 -1259 -1204 0
1260 1259 -1204 0
-1260 1259 1204 0
1260 -1259 1204 0
-984 -1110 1261 0
-984 -1259 1261 0
-1110 -1259 1261 0
984 1110 -1261 0
984 1259 -1261 0
1110 1259 -1261 0
-985 -1111 -1262 0
985 1111 -1262 0
-985 1111 1262 0
985 -1111 1262 0
-1262 -1261 -1205 0
1262 1261 -1205 0
-1262 1261 1205 0
1262 -1261 1205 0
-985 -1111 1263 0
-985 -1261 1263 0
-1111 -1261 1263 0
985 1111 -1263 0
985 1261 -1263 0
1111 1261 -1263 0
-986 -1112 -1264 0
986 1112 -1264 0
-986 1112 1264 0
986 -1112 1264 0
-1264 -1263 -1206 0
1264 1263 -1206 0
-1264 1263 1206 0
1264 -1263 1206 0
-986 -1112 1265 0
-986 -1263 1265 0
-1112 -1263 1265 0
986 1112 -1265 0
986 1263 -1265 0
1112 1263 -1265 0
-987 -1113 -1266 0
987 1113 -1266 0
-987 1113 1266 0
987 -1113 1266 0
-1266 -1265 -1207 0
1266 1265 -1207 0
-1266 1265 1207 0
1266 -1265 1207 0
-987 -1113 1267 0
-987 -1265 1267 0
-1113 -1265 1267 0
987 1113 -1267 0
987 1265 -1267 0
1113 1265 -1267 0
-988 -1114 -1268 0
988 1114 -1268 0
-988 1114 1268 0
988 -1114 1268 0
-1268 -1267 -1208 0
1268 1267 -1208 0
-1268 1267 1208 0
1268 -1267 1208 0
-988 -1114 1269 0
-988 -1267 1269 0
-1114 -1267 1269 0
988 1114 -1269 0
988 1267 -1269 0
1114 1267 -1269 0
-989 -1115 -1270 0
989 1115 -1270 0
-989 1115 1270 0
989 -1115 1270 0
-1270 -1269 -1209 0
1270 1269 -1209 0
-1270 1269 1209 0
1270 -1269 1209 0
-989 -1115 1271 0
-989 -1269 1271 0
-1115 -1269 1271 0
989 1115 -1271 0
989 1269 -1271 0
1115 1269 -1271 0
-990 -1116 -1272 0
990 1116 -1272 0
-990 1116 1272 0
990 -1116 1272 0
-1272 -1271 -1210 0
1272 1271 -1210 0
-1272 1271 1210 0
1272 -1271 1210 0
-515 -526 -1305 0
515 526 -1305 0
-515 526 1305 0
515 -526 1305 0
-1305 -535 -1273 0
1305 535 -1273 0
-1305 535 1273 0
1305 -535 1273 0
-516 -527 -1306 0
516 527 -1306 0
-516 527 1306 0
516 -527 1306 0
-1306 -536 -1274 0
1306 536 -1274 0
-1306 536 1274 0
1306 -536 1274 0
-517 -528 -1307 0
517 528 -1307 0
-517 528 1307 0
517 -528 1307 0
-1307 -537 -1275 0
1307 537 -1275 0
-1307 537 1275 0
1307 -537 1275 0
-518 -529 -1308 0
518 529 -1308 0
-518 529 1308 0
518 -529 1308 0
-1308 -538 -1276 0
1308 538 -1276 0
-1308 538 1276 0
1308 -538 1276 0
-519 -530 -1309 0
519 530 -1309 0
-519 530 1309 0
519 -530 1309 0
-1309 -539 -1277 0
1309 539 -1277 0
-1309 539 1277 0
1309 -539 1277 0
-520 -531 -1310 0
520 531 -1310 0
-520 531 1310 0
520 -531 1310 0
-1310 -540 -1278 0
1310 540 -1278 0
-1310 540 1278 0
1310 -540 1278 0
-521 -532 -1311 0
521 532 -1311 0
-521 532 1311 0
521 -532 1311 0
-1311 -541 -1279 0
1311 541 -1279 0
-1311 541 1279 0
1311 -541 1279 0
-522 -533 -1312 0
522 533 -1312 0
-522 533 1312 0
522 -533 1312 0
-1312 -542 -1280 0
1312 542 -1280 0
-1312 542 1280 0
1312 -542 1280 0
-523 -534 -1313 0
523 534 -1313 0
-523 534 1313 0
523 -534 1313 0
-1313 -543 -1281 0
1313 543 -1281 0
-1313 543 1281 0
1313 -543 1281 0
-524 -535 -1314 0
524 535 -1314 0
-524 535 1314 0
524 -535 1314 0
-1314 -544 -1282 0
1314 544 -1282 0
-1314 544 1282 0
1314 -544 1282 0
-525 -536 -1315 0
525 536 -1315 0
-525 536 1315 0
525 -536 1315 0
-1315 -513 -1283 0
1315 513 -1283 0
-1315 513 1283 0
1315 -513 1283 0
-526 -537 -1316 0
526 537 -1316 0
-526 537 1316 0
526 -537 1316 0
-1316 -514 -1284 0
1316 514 -1284 0
-1316 514 1284 0
1316 -514 1284 0
-527 -538 -1317 0
527 538 -1317 0
-527 538 1317 0
527 -538 1317 0
-1317 -515 -1285 0
1317 515 -1285 0
-1317 515 1285 0
1317 -515 1285 0
-528 -539 -1318 0
528 539 -1318 0
-528 539 1318 0
528 -539 1318 0
-1318 -516 -1286 0
1318 516 -1286 0
-1318 516 1286 0
1318 -516 1286 0
-529 -540 -1319 0
529 540 -1319 0
-529 540 1319 0
529 -540 1319 0
-1319 -517 -1287 0
1319 517 -1287 0
-1319 517 1287 0
1319 -517 1287 0
-530 -541 -1320 0
530 541 -1320 0
-530 541 1320 0
530 -541 1320 0
-1320 -518 -1288 0
1320 518 -1288 0
-1320 518 1288 0
1320 -518 1288 0
-531 -542 -1321 0
531 542 -1321 0
-531 542 1321 0
531 -542 1321 0
-1321 -519 -1289 0
1321 519 -1289 0
-1321 519 1289 0
1321 -519 1289 0
-532 -543 -1322 0
532 543 -1322 0
-532 543 1322 0
532 -543 1322 0
-1322 -520 -1290 0
1322 520 -1290 0
-1322 520 1290 0
1322 -520 1290 0
-533 -544 -1323 0
533 544 -1323 0
-533 544 1323 0
533 -544 1323 0
-1323 -521 -1291 0
1323 521 -1291 0
-1323 521 1291 0
1323 -521 1291 0
-534 -513 -1324 0
534 513 -1324 0
-534 513 1324 0
534 -513 1324 0
-1324 -522 -1292 0
1324 522 -1292 0
-1324 522 1292 0
1324 -522 1292 0
-535 -514 -1325 0
535 514 -1325 0
-535 514 1325 0
535 -514 1325 0
-1325 -523 -1293 0
1325 523 -1293 0
-1325 523 1293 0
1325 -523 1293 0
-536 -515 -1326 0
536 515 -1326 0
-536 515 1326 0
536 -515 1326 0
-1326 -524 -1294 0
1326 524 -1294 0
-1326 524 1294 0
1326 -524 1294 0
-537 -516 -1327 0
537 516 -1327 0
-537 516 1327 0
537 -516 1327 0
-1327 -525 -1295 0
1327 525 -1295 0
-1327 525 1295 0
1327 -525 1295 0
-538 -517 -1328 0
538 517 -1328 0
-538 517 1328 0
538 -517 1328 0
-1328 -526 -1296 0
1328 526 -1296 0
-1328 526 1296 0
1328 -526 1296 0
-539 -518 -1329 0
539 518 -1329 0
-539 518 1329 0
539 -518 1329 0
-1329 -527 -1297 0
1329 527 -1297 0
-1329 527 1297 0
1329 -527 1297 0
-540 -519 -1330 0
540 519 -1330 0
-540 519 1330 0
540 -519 1330 0
-1330 -528 -1298 0
1330 528 -1298 0
-1330 528 1298 0
1330 -528 1298 0
-541 -520 -1331 0
541 520 -1331 0
-541 520 1331 0
541 -520 1331 0
-1331 -529 -1299 0
1331 529 -1299 0
-1331 529 1299 0
1331 -529 1299 0
-542 -521 -1332 0
542 521 -1332 0
-542 521 1332 0
542 -521 1332 0
-1332 -530 -1300 0
1332 530 -1300 0
-1332 530 1300 0
1332 -530 1300 0
-543 -522 -1333 0
543 522 -1333 0
-543 522 1333 0
543 -522 1333 0
-1333 -531 -1301 0
1333 531 -1301 0
-1333 531 1301 0
1333 -531 1301 0
-544 -523 -1334 0
544 523 -1334 0
-544 523 1334 0
544 -523 1334 0
-1334 -532 -1302 0
1334 532 -1302 0
-1334 532 1302 0
1334 -532 1302 0
-513 -524 -1335 0
513 524 -1335 0
-513 524 1335 0
513 -524 1335 0
-1335 -533 -1303 0
1335 533 -1303 0
-1335 533 1303 0
1335 -533 1303 0
-514 -525 -1336 0
514 525 -1336 0
-514 525 1336 0
514 -525 1336 0
-1336 -534 -1304 0
1336 534 -1304 0
-1336 534 1304 0
1336 -534 1304 0
-513 -545 1337 0
-513 -577 1337 0
-545 -577 1337 0
513 545 -1337 0
513 577 -1337 0
545 577 -1337 0
-514 -546 1338 0
-514 -578 1338 0
-546 -578 1338 0
514 546 -1338 0
514 578 -1338 0
546 578 -1338 0
-515 -547 1339 0
-515 -579 1339 0
-547 -579 1339 0
515 547 -1339 0
515 579 -1339 0
547 579 -1339 0
-516 -548 1340 0
-516 -580 1340 0
-548 -580 1340 0
516 548 -1340 0
516 580 -1340 0
548 580 -1340 0
-517 -549 1341 0
-517 -581 1341 0
-549 -581 1341 0
517 549 -1341 0
517 581 -1341 0
549 581 -1341 0
-518 -550 1342 0
-518 -582 1342 0
-550 -582 1342 0
518 550 -1342 0
518 582 -1342 0
550 582 -1342 0
-519 -551 1343 0
-519 -583 1343 0
-551 -583 1343 0
519 551 -1343 0
519 583 -1343 0
551 583 -1343 0
-520 -552 1344 0
-520 -584 1344 0
-552 -584 1344 0
520 552 -1344 0
520 584 -1344 0
552 584 -1344 0
-521 -553 1345 0
-521 -585 1345 0
-553 -585 1345 0
521 553 -1345 0
521 585 -1345 0
553 585 -1345 0
-522 -554 1346 0
-522 -586 1346 0
-554 -586 1346 0
522 554 -1346 0
522 586 -1346 0
554 586 -1346 0
-523 -555 1347 0
-523 -587 1347 0
-555 -587 1347 0
523 555 -1347 0
523 587 -1347 0
555 587 -1347 0
-524 -556 1348 0
-524 -588 1348 0
-556 -588 1348 0
524 556 -1348 0
524 588 -1348 0
556 588 -1348 0
-525 -557 1349 0
-525 -589 1349 0
-557 -589 1349 0
525 557 -1349 0
525 589 -1349 0
557 589 -1349 0
-526 -558 1350 0
-526 -590 1350 0
-558 -590 1350 0
526 558 -1350 0
526 590 -1350 0
558 590 -1350 0
-527 -559 1351 0
-527 -591 1351 0
-559 -591 1351 0
527 559 -1351 0
527 591 -1351 0
559 591 -1351 0
-528 -560 1352 0
-528 -592 1352 0
-560 -592 1352 0
528 560 -1352 0
528 592 -1352 0
560 592 -1352 0
-529 -561 1353 0
-529 -593 1353 0
-561 -593 1353 0
529 561 -1353 0
529 593 -1353 0
561 593 -1353 0
-530 -562 1354 0
-530 -594 1354 0
-562 -594 1354 0
530 562 -1354 0
530 594 -1354 0
562 594 -1354 0
-531 -563 1355 0
-531 -595 1355 0
-563 -595 1355 0
531 563 -1355 0
531 595 -1355 0
563 595 -1355 0
-532 -564 1356 0
-532 -596 1356 0
-564 -596 1356 0
532 564 -1356 0
532 596 -1356 0
564 596 -1356 0
-533 -565 1357 0
-533 -597 1357 0
-565 -597 1357 0
533 565 -1357 0
533 597 -1357 0
565 597 -1357 0
-534 -566 1358 0
-534 -598 1358 0
-566 -598 1358 0
534 566 -1358 0
534 598 -1358 0
566 598 -1358 0
-535 -567 1359 0
-535 -599 1359 0
-567 -599 1359 0
535 567 -1359 0
535 599 -1359 0
567 599 -1359 0
-536 -568 1360 0
-536 -600 1360 0
-568 -600 1360 0
536 568 -1360 0
536 600 -1360 0
568 600 -1360 0
-537 -569 1361 0
-537 -601 1361 0
-569 -601 1361 0
537 569 -1361 0
537 601 -1361 0
569 601 -1361 0
-538 -570 1362 0
-538 -602 1362 0
-570 -602 1362 0
538 570 -1362 0
538 602 -1362 0
570 602 -1362 0
-539 -571 1363 0
-539 -603 1363 0
-571 -603 1363 0
539 571 -1363 0
539 603 -1363 0
571 603 -1363 0
-540 -572 1364 0
-540 -604 1364 0
-572 -604 1364 0
540 572 -1364 0
540 604 -1364 0
572 604 -1364 0
-541 -573 1365 0
-541 -605 1365 0
-573 -605 1365 0
541 573 -1365 0
541 605 -1365 0
573 605 -1365 0
-542 -574 1366 0
-542 -606 1366 0
-574 -606 1366 0
542 574 -1366 0
542 606 -1366 0
574 606 -1366 0
-543 -575 1367 0
-543 -607 1367 0
-575 -607 1367 0
543 575 -1367 0
543 607 -1367 0
575 607 -1367 0
-544 -576 1368 0
-544 -608 1368 0
-576 -608 1368 0
544 576 -1368 0
544 608 -1368 0
576 608 -1368 0
-1273 -1337 -1369 0
1273 1337 -1369 0
-1273 1337 1369 0
1273 -1337 1369 0
-1273 -1337 1401 0
1273 -1401 0
1337 -1401 0
-1274 -1338 -1402 0
1274 1338 -1402 0
-1274 1338 1402 0
1274 -1338 1402 0
-1402 -1401 -1370 0
1402 1401 -1370 0
-1402 1401 1370 0
1402 -1401 1370 0
-1274 -1338 1403 0
-1274 -1401 1403 0
-1338 -1401 1403 0
1274 1338 -1403 0
1274 1401 -1403 0
1338 1401 -1403 0
-1275 -1339 -1404 0
1275 1339 -1404 0
-1275 1339 1404 0
1275 -1339 1404 0
-1404 -1403 -1371 0
1404 1403 -1371 0
-1404 1403 1371 0
1404 -1403 1371 0
-1275 -1339 1405 0
-1275 -1403 1405 0
-1339 -1403 1405 0
1275 1339 -1405 0
1275 1403 -1405 0
1339 1403 -1405 0
-1276 -1340 -1406 0
1276 1340 -1406 0
-1276 1340 1406 0
1276 -1340 1406 0
-1406 -1405 -1372 0
1406 1405 -1372 0
-1406 1405 1372 0
1406 -1405 1372 0
-1276 -1340 1407 0
-1276 -1405 1407 0
-1340 -1405 1407 0
1276 1340 -1407 0
1276 1405 -1407 0
1340 1405 -1407 0
-1277 -1341 -1408 0
1277 1341 -1408 0
-1277 1341 1408 0
1277 -1341 1408 0
-1408 -1407 -1373 0
1408 1407 -1373 0
-1408 1407 1373 0
1408 -1407 1373 0
-1277 -1341 1409 0
-1277 -1407 1409 0
-1341 -1407 1409 0
1277 1341 -1409 0
1277 1407 -1409 0
1341 1407 -1409 0
-1278 -1342 -1410 0
1278 1342 -1410 0
-1278 1342 1410 0
1278 -1342 1410 0
-1410 -1409 -1374 0
1410 1409 -1374 0
-1410 1409 1374 0
1410 -1409 1374 0
-1278 -1342 1411 0
-1278 -1409 1411 0
-1342 -1409 1411 0
1278 1342 -1411 0
1278 1409 -1411 0
1342 1409 -1411 0
-1279 -1343 -1412 0
1279 1343 -1412 0
-1279 1343 1412 0
1279 -1343 1412 0
-1412 -1411 -1375 0
1412 1411 -1375 0
-1412 1411 1375 0
1412 -1411 1375 0
-1279 -1343 1413 0
-1279 -1411 1413 0
-1343 -1411 1413 0
1279 1343 -1413 0
1279 1411 -1413 0
1343 1411 -1413 0
-1280 -1344 -1414 0
1280 1344 -1414 0
-1280 1344 1414 0
1280 -1344 1414 0
-1414 -1413 -1376 0
1414 1413 -1376 0
-1414 1413 1376 0
1414 -1413 1376 0
-1280 -1344 1415 0
-1280 -1413 1415 0
-1344 -1413 1415 0
1280 1344 -1415 0
1280 1413 -1415 0
1344 1413 -1415 0
-1281 -1345 -1416 0
1281 1345 -1416 0
-1281 1345 1416 0
1281 -1345 1416 0
-1416 -1415 -1377 0
1416 1415 -1377 0
-1416 1415 1377 0
1416 -1415 1377 0
-1281 -1345 1417 0
-1281 -1415 1417 0
-1345 -1415 1417 0
1281 1345 -1417 0
1281 1415 -1417 0
1345 1415 -1417 0
-1282 -1346 -1418 0
1282 1346 -1418 0
-1282 1346 1418 0
1282 -1346 1418 0
-1418 -1417 -1378 0
1418 1417 -1378 0
-1418 1417 1378 0
1418 -1417 1378 0
-1282 -1346 1419 0
-1282 -1417 1419 0
-1346 -1417 1419 0
1282 1346 -1419 0
1282 1417 -1419 0
1346 1417 -1419 0
-1283 -1347 -1420 0
1283 1347 -1420 0
-1283 1347 1420 0
1283 -1347 1420 0
-1420 -1419 -1379 0
1420 1419 -1379 0
-1420 1419 1379 0
1420 -1419 1379 0
-1283 -1347 1421 0
-1283 -1419 1421 0
-1347 -1419 1421 0
1283 1347 -1421 0
1283 1419 -1421 0
1347 1419 -1421 0
-1284 -1348 -1422 0
1284 1348 -1422 0
-1284 1348 1422 0
1284 -1348 1422 0
-1422 -1421 -1380 0
1422 1421 -1380 0
-1422 1421 1380 0
1422 -1421 1380 0
-1284 -1348 1423 0
-1284 -1421 1423 0
-1348 -1421 1423 0
1284 1348 -1423 0
1284 1421 -1423 0
1348 1421 -1423 0
-1285 -1349 -1424 0
1285 1349 -1424 0
-1285 1349 1424 0
1285 -1349 1424 0
-1424 -1423 -1381 0
1424 1423 -1381 0
-1424 1423 1381 0
1424 -1423 1381 0
-1285 -1349 1425 0
-1285 -1423 1425 0
-1349 -1423 1425 0
1285 1349 -1425 0
1285 1423 -1425 0
1349 1423 -1425 0
-1286 -1350 -1426 0
1286 1350 -1426 0
-1286 1350 1426 0
1286 -1350 1426 0
-1426 -1425 -1382 0
1426 1425 -1382 0
-1426 1425 1382 0
1426 -1425 1382 0
-1286 -1350 1427 0
-1286 -1425 1427 0
-1350 -1425 1427 0
1286 1350 -1427 0
1286 1425 -1427 0
1350 1425 -1427 0
-1287 -1351 -1428 0
1287 1351 -1428 0
-1287 1351 1428 0
1287 -1351 1428 0
-1428 -1427 -1383 0
1428 1427 -1383 0
-1428 1427 1383 0
1428 -1427 1383 0
-1287 -1351 1429 0
-1287 -1427 1429 0
-1351 -1427 1429 0
1287 1351 -1429 0
1287 1427 -1429 0
1351 1427 -1429 0
-1288 -1352 -1430 0
1288 1352 -1430 0
-1288 1352 1430 0
1288 -1352 1430 0
-1430 -1429 -1384 0
1430 1429 -1384 0
-1430 1429 1384 0
1430 -1429 1384 0
-1288 -1352 1431 0
-1288 -1429 1431 0
-1352 -1429 1431 0
1288 1352 -1431 0
1288 1429 -1431 0
1352 1429 -1431 0
-1289 -1353 -1432 0
1289 1353 -1432 0
-1289 1353 1432 0
1289 -1353 1432 0
-1432 -1431 -1385 0
1432 1431 -1385 0
-1432 1431 1385 0
1432 -1431 1385 0
-1289 -1353 1433 0
-1289 -1431 1433 0
-1353 -1431 1433 0
1289 1353 -1433 0
1289 1431 -1433 0
1353 1431 -1433 0
-1290 -1354 -1434 0
1290 1354 -1434 0
-1290 1354 1434 0
1290 -1354 1434 0
-1434 -1433 -1386 0
1434 1433 -1386 0
-1434 1433 1386 0
1434 -1433 1386 0
-1290 -1354 1435 0
-1290 -1433 1435 0
-1354 -1433 1435 0
1290 1354 -1435 0
1290 1433 -1435 0
1354 1433 -1435 0
-1291 -1355 -1436 0
1291 1355 -1436 0
-1291 1355 1436 0
1291 -1355 1436 0
-1436 -1435 -1387 0
1436 1435 -1387 0
-1436 1435 1387 0
1436 -1435 1387 0
-1291 -1355 1437 0
-1291 -1435 1437 0
-1355 -1435 1437 0
1291 1355 -1437 0
1291 1435 -1437 0
1355 1435 -1437 0
-1292 -1356 -1438 0
1292 1356 -1438 0
-1292 1356 1438 0
1292 -1356 1438 0
-1438 -1437 -1388 0
1438 1437 -1388 0
-1438 1437 1388 0
1438 -1437 1388 0
-1292 -1356 1439 0
-1292 -1437 1439 0
-1356 -1437 1439 0
1292 1356 -1439 0
1292 1437 -1439 0
1356 1437 -1439 0
-1293 -1357 -1440 0
1293 1357 -1440 0
-1293 1357 1440 0
1293 -1357 1440 0
-1440 -1439 -1389 0
1440 1439 -1389 0
-1440 1439 1389 0
1440 -1439 1389 0
-1293 -1357 1441 0
-1293 -1439 1441 0
-1357 -1439 1441 0
1293 1357 -1441 0
1293 1439 -1441 0
1357 1439 -1441 0
-1294 -1358 -1442 0
1294 1358 -1442 0
-1294 1358 1442 0
1294 -1358 1442 0
-1442 -1441 -1390 0
1442 1441 -1390 0
-1442 1441 1390 0
1442 -1441 1390 0
-1294 -1358 1443 0
-1294 -1441 1443 0
-1358 -1441 1443 0
1294 1358 -1443 0
1294 1441 -1443 0
1358 1441 -1443 0
-1295 -1359 -1444 0
1295 1359 -1444 0
-1295 1359 1444 0
1295 -1359 1444 0
-1444 -1443 -1391 0
1444 1443 -1391 0
-1444 1443 1391 0
1444 -1443 1391 0
-1295 -1359 1445 0
-1295 -1443 1445 0
-1359 -1443 1445 0
1295 1359 -1445 0
1295 1443 -1445 0
1359 1443 -1445 0
-1296 -1360 -1446 0
1296 1360 -1446 0
-1296 1360 1446 0
1296 -1360 1446 0
-1446 -1445 -1392 0
1446 1445 -1392 0
-1446 1445 1392 0
1446 -1445 1392 0
-1296 -1360 1447 0
-1296 -1445 1447 0
-1360 -1445 1447 0
1296 1360 -1447 0
1296 1445 -1447 0
1360 1445 -1447 0
-1297 -1361 -1448 0
1297 1361 -1448 0
-1297 1361 1448 0
1297 -1361 1448 0
-1448 -1447 -1393 0
1448 1447 -1393 0
-1448 1447 1393 0
1448 -1447 1393 0
-1297 -1361 1449 0
-1297 -1447 1449 0
-1361 -1447 1449 0
1297 1361 -1449 0
1297 1447 -1449 0
1361 1447 -1449 0
-1298 -1362 -1450 0
1298 1362 -1450 0
-1298 1362 1450 0
1298 -1362 1450 0
-1450 -1449 -1394 0
1450 1449 -1394 0
-1450 1449 1394 0
1450 -1449 1394 0
-1298 -1362 1451 0
-1298 -1449 1451 0
-1362 -1449 1451 0
1298 1362 -1451 0
1298 1449 -1451 0
1362 1449 -1451 0
-1299 -1363 -1452 0
1299 1363 -1452 0
-1299 1363 1452 0
1299 -1363 1452 0
-1452 -1451 -1395 0
1452 1451 -1395 0
-1452 1451 1395 0
1452 -1451 1395 0
-1299 -1363 1453 0
-1299 -1451 1453 0
-1363 -1451 1453 0
1299 1363 -1453 0
1299 1451 -1453 0
1363 1451 -1453 0
-1300 -1364 -1454 0
1300 1364 -1454 0
-1300 1364 1454 0
1300 -1364 1454 0
-1454 -1453 -1396 0
1454 1453 -1396 0
-1454 1453 1396 0
1454 -1453 1396 0
-1300 -1364 1455 0
-1300 -1453 1455 0
-1364 -1453 1455 0
1300 1364 -1455 0
1300 1453 -1455 0
1364 1453 -1455 0
-1301 -1365 -1456 0
1301 1365 -1456 0
-1301 1365 1456 0
1301 -1365 1456 0
-1456 -1455 -1397 0
1456 1455 -1397 0
-1456 1455 1397 0
1456 -1455 1397 0
-1301 -1365 1457 0
-1301 -1455 1457 0
-1365 -1455 1457 0
1301 1365 -1457 0
1301 1455 -1457 0
1365 1455 -1457 0
-1302 -1366 -1458 0
1302 1366 -1458 0
-1302 1366 1458 0
1302 -1366 1458 0
-1458 -1457 -1398 0
1458 1457 -1398 0
-1458 1457 1398 0
1458 -1457 1398 0
-1302 -1366 1459 0
-1302 -1457 1459 0
-1366 -1457 1459 0
1302 1366 -1459 0
1302 1457 -1459 0
1366 1457 -1459 0
-1303 -1367 -1460 0
1303 1367 -1460 0
-1303 1367 1460 0
1303 -1367 1460 0
-1460 -1459 -1399 0
1460 1459 -1399 0
-1460 1459 1399 0
1460 -1459 1399 0
-1303 -1367 1461 0
-1303 -1459 1461 0
-1367 -1459 1461 0
1303 1367 -1461 0
1303 1459 -1461 0
1367 1459 -1461 0
-1304 -1368 -1462 0
1304 1368 -1462 0
-1304 1368 1462 0
1304 -1368 1462 0
-1462 -1461 -1400 0
1462 1461 -1400 0
-1462 1461 1400 0
1462 -1461 1400 0
-609 -1179 -1463 0
609 1179 -1463 0
-609 1179 1463 0
609 -1179 1463 0
-609 -1179 1495 0
609 -1495 0
1179 -1495 0
-610 -1180 -1496 0
610 1180 -1496 0
-610 1180 1496 0
610 -1180 1496 0
-1496 -1495 -1464 0
1496 1495 -1464 0
-1496 1495 1464 0
1496 -1495 1464 0
-610 -1180 1497 0
-610 -1495 1497 0
-1180 -1495 1497 0
610 1180 -1497 0
610 1495 -1497 0
1180 1495 -1497 0
-611 -1181 -1498 0
611 1181 -1498 0
-611 1181 1498 0
611 -1181 1498 0
-1498 -1497 -1465 0
1498 1497 -1465 0
-1498 1497 1465 0
1498 -1497 1465 0
-611 -1181 1499 0
-611 -1497 1499 0
-1181 -1497 1499 0
611 1181 -1499 0
611 1497 -1499 0
1181 1497 -1499 0
-612 -1182 -1500 0
612 1182 -1500 0
-612 1182 1500 0
612 -1182 1500 0
-1500 -1499 -1466 0
1500 1499 -1466 0
-1500 1499 1466 0
1500 -1499 1466 0
-612 -1182 1501 0
-612 -1499 1501 0
-1182 -1499 1501 0
612 1182 -1501 0
612 1499 -1501 0
1182 1499 -1501 0
-613 -1183 -1502 0
613 1183 -1502 0
-613 1183 1502 0
613 -1183 1502 0
-1502 -1501 -1467 0
1502 1501 -1467 0
-1502 1501 1467 0
1502 -1501 1467 0
-613 -1183 1503 0
-613 -1501 1503 0
-1183 -1501 1503 0
613 1183 -1503 0
613 1501 -1503 0
1183 1501 -1503 0
-614 -1184 -1504 0
614 1184 -1504 0
-614 1184 1504 0
614 -1184 1504 0
-1504 -1503 -1468 0
1504 1503 -1468 0
-1504 1503 1468 0
1504 -1503 1468 0
-614 -1184 1505 0
-614 -1503 1505 0
-1184 -1503 1505 0
614 1184 -1505 0
614 1503 -1505 0
1184 1503 -1505 0
-615 -1185 -1506 0
615 1185 -1506 0
-615 1185 1506 0
615 -1185 1506 0
-1506 -1505 -1469 0
1506 1505 -1469 0
-1506 1505 1469 0
1506 -1505 1469 0
-615 -1185 1507 0
-615 -1505 1507 0
-1185 -1505 1507 0
615 1185 -1507 0
615 1505 -1507 0
1185 1505 -1507 0
-616 -1186 -1508 0
616 1186 -1508 0
-616 1186 1508 0
616 -1186 1508 0
-1508 -1507 -1470 0
1508 1507 -1470 0
-1508 1507 1470 0
1508 -1507 1470 0
-616 -1186 1509 0
-616 -1507 1509 0
-1186 -1507 1509 0
616 1186 -1509 0
616 1507 -1509 0
1186 1507 -1509 0
-617 -1187 -1510 0
617 1187 -1510 0
-617 1187 1510 0
617 -1187 1510 0
-1510 -1509 -1471 0
1510 1509 -1471 0
-1510 1509 1471 0
1510 -1509 1471 0
-617 -1187 1511 0
-617 -1509 1511 0
-1187 -1509 1511 0
617 1187 -1511 0
617 1509 -1511 0
1187 1509 -1511 0
-618 -1188 -1512 0
618 1188 -1512 0
-618 1188 1512 0
618 -1188 1512 0
-1512 -1511 -1472 0
1512 1511 -1472 0
-1512 1511 1472 0
1512 -1511 1472 0
-618 -1188 1513 0
-618 -1511 1513 0
-1188 -1511 1513 0
618 1188 -1513 0
618 1511 -1513 0
1188 1511 -1513 0
-619 -1189 -1514 0
619 1189 -1514 0
-619 1189 1514 0
619 -1189 1514 0
-1514 -1513 -1473 0
1514 1513 -1473 0
-1514 1513 1473 0
1514 -1513 1473 0
-619 -1189 1515 0
-619 -1513 1515 0
-1189 -1513 1515 0
619 1189 -1515 0
619 1513 -1515 0
1189 1513 -1515 0
-620 -1190 -1516 0
620 1190 -1516 0
-620 1190 1516 0
620 -1190 1516 0
-1516 -1515 -1474 0
1516 1515 -1474 0
-1516 1515 1474 0
1516 -1515 1474 0
-620 -1190 1517 0
-620 -1515 1517 0
-1190 -1515 1517 0
620 1190 -1517 0
620 1515 -1517 0
1190 1515 -1517 0
-621 -1191 -1518 0
621 1191 -1518 0
-621 1191 1518 0
621 -1191 1518 0
-1518 -1517 -1475 0
1518 1517 -1475 0
-1518 1517 1475 0
1518 -1517 1475 0
-621 -1191 1519 0
-621 -1517 1519 0
-1191 -1517 1519 0
621 1191 -1519 0
621 1517 -1519 0
1191 1517 -1519 0
-622 -1192 -1520 0
622 1192 -1520 0
-622 1192 1520 0
622 -1192 1520 0
-1520 -1519 -1476 0
1520 1519 -1476 0
-1520 1519 1476 0
1520 -1519 1476 0
-622 -1192 1521 0
-622 -1519 1521 0
-1192 -1519 1521 0
622 1192 -1521 0
622 1519 -1521 0
1192 1519 -1521 0
-623 -1193 -1522 0
623 1193 -1522 0
-623 1193 1522 0
623 -1193 1522 0
-1522 -1521 -1477 0
1522 1521 -1477 0
-1522 1521 1477 0
1522 -1521 1477 0
-623 -1193 1523 0
-623 -1521 1523 0
-1193 -1521 1523 0
623 1193 -1523 0
623 1521 -1523 0
1193 1521 -1523 0
-624 -1194 -1524 0
624 1194 -1524 0
-624 1194 1524 0
624 -1194 1524 0
-1524 -1523 -1478 0
1524 1523 -1478 0
-1524 1523 1478 0
1524 -1523 1478 0
-624 -1194 1525 0
-624 -1523 1525 0
-1194 -1523 1525 0
624 1194 -1525 0
624 1523 -1525 0
1194 1523 -1525 0
-625 -1195 -1526 0
625 1195 -1526 0
-625 1195 1526 0
625 -1195 1526 0
-1526 -1525 -1479 0
1526 1525 -1479 0
-1526 1525 1479 0
1526 -1525 1479 0
-625 -1195 1527 0
-625 -1525 1527 0
-1195 -1525 1527 0
625 1195 -1527 0
625 1525 -1527 0
1195 1525 -1527 0
-626 -1196 -1528 0
626 1196 -1528 0
-626 1196 1528 0
626 -1196 1528 0
-1528 -1527 -1480 0
1528 1527 -1480 0
-1528 1527 1480 0
1528 -1527 1480 0
-626 -1196 1529 0
-626 -1527 1529 0
-1196 -1527 1529 0
626 1196 -1529 0
626 1527 -1529 0
1196 1527 -1529 0
-627 -1197 -1530 0
627 1197 -1530 0
-627 1197 1530 0
627 -1197 1530 0
-1530 -1529 -1481 0
1530 1529 -1481 0
-1530 1529 1481 0
1530 -1529 1481 0
-627 -1197 1531 0
-627 -1529 1531 0
-1197 -1529 1531 0
627 1197 -1531 0
627 1529 -1531 0
1197 1529 -1531 0
-628 -1198 -1532 0
628 1198 -1532 0
-628 1198 1532 0
628 -1198 1532 0
-1532 -1531 -1482 0
1532 1531 -1482 0
-1532 1531 1482 0
1532 -1531 1482 0
-628 -1198 1533 0
-628 -1531 1533 0
-1198 -1531 1533 0
628 1198 -1533 0
628 1531 -1533 0
1198 1531 -1533 0
-629 -1199 -1534 0
629 1199 -1534 0
-629 1199 1534 0
629 -1199 1534 0
-1534 -1533 -1483 0
1534 1533 -1483 0
-1534 1533 1483 0
1534 -1533 1483 0
-629 -1199 1535 0
-629 -1533 1535 0
-1199 -1533 1535 0
629 1199 -1535 0
629 1533 -1535 0
1199 1533 -1535 0
-630 -1200 -1536 0
630 1200 -1536 0
-630 1200 1536 0
630 -1200 1536 0
-1536 -1535 -1484 0
1536 1535 -1484 0
-1536 1535 1484 0
1536 -1535 1484 0
-630 -1200 1537 0
-630 -1535 1537 0
-1200 -1535 1537 0
630 1200 -1537 0
630 1535 -1537 0
1200 1535 -1537 0
-631 -1201 -1538 0
631 1201 -1538 0
-631 1201 1538 0
631 -1201 1538 0
-1538 -1537 -1485 0
1538 1537 -1485 0
-1538 1537 1485 0
1538 -1537 1485 0
-631 -1201 1539 0
-631 -1537 1539 0
-1201 -1537 1539 0
631 1201 -1539 0
631 1537 -1539 0
1201 1537 -1539 0
-632 -1202 -1540 0
632 1202 -1540 0
-632 1202 1540 0
632 -1202 1540 0
-1540 -1539 -1486 0
1540 1539 -1486 0
-1540 1539 1486 0
1540 -1539 1486 0
-632 -1202 1541 0
-632 -1539 1541 0
-1202 -1539 1541 0
632 1202 -1541 0
632 1539 -1541 0
1202 1539 -1541 0
-633 -1203 -1542 0
633 1203 -1542 0
-633 1203 1542 0
633 -1203 1542 0
-1542 -1541 -1487 0
1542 1541 -1487 0
-1542 1541 1487 0
1542 -1541 1487 0
-633 -1203 1543 0
-633 -1541 1543 0
-1203 -1541 1543 0
633 1203 -1543 0
633 1541 -1543 0
1203 1541 -1543 0
-634 -1204 -1544 0
634 1204 -1544 0
-634 1204 1544 0
634 -1204 1544 0
-1544 -1543 -1488 0
1544 1543 -1488 0
-1544 1543 1488 0
1544 -1543 1488 0
-634 -1204 1545 0
-634 -1543 1545 0
-1204 -1543 1545 0
634 1204 -1545 0
634 1543 -1545 0
1204 1543 -1545 0
-635 -1205 -1546 0
635 1205 -1546 0
-635 1205 1546 0
635 -1205 1546 0
-1546 -1545 -1489 0
1546 1545 -1489 0
-1546 1545 1489 0
1546 -1545 1489 0
-635 -1205 1547 0
-635 -1545 1547 0
-1205 -1545 1547 0
635 1205 -1547 0
635 1545 -1547 0
1205 1545 -1547 0
-636 -1206 -1548 0
636 1206 -1548 0
-636 1206 1548 0
636 -1206 1548 0
-1548 -1547 -1490 0
1548 1547 -1490 0
-1548 1547 1490 0
1548 -1547 1490 0
-636 -1206 1549 0
-636 -1547 1549 0
-1206 -1547 1549 0
636 1206 -1549 0
636 1547 -1549 0
1206 1547 -1549 0
-637 -1207 -1550 0
637 1207 -1550 0
-637 1207 1550 0
637 -1207 1550 0
-1550 -1549 -1491 0
1550 1549 -1491 0
-1550 1549 1491 0
1550 -1549 1491 0
-637 -1207 1551 0
-637 -1549 1551 0
-1207 -1549 1551 0
637 1207 -1551 0
637 1549 -1551 0
1207 1549 -1551 0
-638 -1208 -1552 0
638 1208 -1552 0
-638 1208 1552 0
638 -1208 1552 0
-1552 -1551 -1492 0
1552 1551 -1492 0
-1552 1551 1492 0
1552 -1551 1492 0
-638 -1208 1553 0
-638 -1551 1553 0
-1208 -1551 1553 0
638 1208 -1553 0
638 1551 -1553 0
1208 1551 -1553 0
-639 -1209 -1554 0
639 1209 -1554 0
-639 1209 1554 0
639 -1209 1554 0
-1554 -1553 -1493 0
1554 1553 -1493 0
-1554 1553 1493 0
1554 -1553 1493 0
-639 -1209 1555 0
-639 -1553 1555 0
-1209 -1553 1555 0
639 1209 -1555 0
639 1553 -1555 0
1209 1553 -1555 0
-640 -1210 -1556 0
640 1210 -1556 0
-640 1210 1556 0
640 -1210 1556 0
-1556 -1555 -1494 0
1556 1555 -1494 0
-1556 1555 1494 0
1556 -1555 1494 0
-1179 -1369 -1557 0
1179 1369 -1557 0
-1179 1369 1557 0
1179 -1369 1557 0
-1179 -1369 1589 0
1179 -1589 0
1369 -1589 0
-1180 -1370 -1590 0
1180 1370 -1590 0
-1180 1370 1590 0
1180 -1370 1590 0
-1590 -1589 -1558 0
1590 1589 -1558 0
-1590 1589 1558 0
1590 -1589 1558 0
-1180 -1370 1591 0
-1180 -1589 1591 0
-1370 -1589 1591 0
1180 1370 -1591 0
1180 1589 -1591 0
1370 1589 -1591 0
-1181 -1371 -1592 0
1181 1371 -1592 0
-1181 1371 1592 0
1181 -1371 1592 0
-1592 -1591 -1559 0
1592 1591 -1559 0
-1592 1591 1559 0
1592 -1591 1559 0
-1181 -1371 1593 0
-1181 -1591 1593 0
-1371 -1591 1593 0
1181 1371 -1593 0
1181 1591 -1593 0
1371 1591 -1593 0
-1182 -1372 -1594 0
1182 1372 -1594 0
-1182 1372 1594 0
1182 -1372 1594 0
-1594 -1593 -1560 0
1594 1593 -1560 0
-1594 1593 1560 0
1594 -1593 1560 0
-1182 -1372 1595 0
-1182 -1593 1595 0
-1372 -1593 1595 0
1182 1372 -1595 0
1182 1593 -1595 0
1372 1593 -1595 0
-1183 -1373 -1596 0
1183 1373 -1596 0
-1183 1373 1596 0
1183 -1373 1596 0
-1596 -1595 -1561 0
1596 1595 -1561 0
-1596 1595 1561 0
1596 -1595 1561 0
-1183 -1373 1597 0
-1183 -1595 1597 0
-1373 -1595 1597 0
1183 1373 -1597 0
1183 1595 -1597 0
1373 1595 -1597 0
-1184 -1374 -1598 0
1184 1374 -1598 0
-1184 1374 1598 0
1184 -1374 1598 0
-1598 -1597 -1562 0
1598 1597 -1562 0
-1598 1597 1562 0
1598 -1597 1562 0
-1184 -1374 1599 0
-1184 -1597 1599 0
-1374 -1597 1599 0
1184 1374 -1599 0
1184 1597 -1599 0
1374 1597 -1599 0
-1185 -1375 -1600 0
1185 1375 -1600 0
-1185 1375 1600 0
1185 -1375 1600 0
-1600 -1599 -1563 0
1600 1599 -1563 0
-1600 1599 1563 0
1600 -1599 1563 0
-1185 -1375 1601 0
-1185 -1599 1601 0
-1375 -1599 1601 0
1185 1375 -1601 0
1185 1599 -1601 0
1375 1599 -1601 0
-1186 -1376 -1602 0
1186 1376 -1602 0
-1186 1376 1602 0
1186 -1376 1602 0
-1602 -1601 -1564 0
1602 1601 -1564 0
-1602 1601 1564 0
1602 -1601 1564 0
-1186 -1376 1603 0
-1186 -1601 1603 0
-1376 -1601 1603 0
1186 1376 -1603 0
1186 1601 -1603 0
1376 1601 -1603 0
-1187 -1377 -1604 0
1187 1377 -1604 0
-1187 1377 1604 0
1187 -1377 1604 0
-1604 -1603 -1565 0
1604 1603 -1565 0
-1604 1603 1565 0
1604 -1603 1565 0
-1187 -1377 1605 0
-1187 -1603 1605 0
-1377 -1603 1605 0
1187 1377 -1605 0
1187 1603 -1605 0
1377 1603 -1605 0
-1188 -1378 -1606 0
1188 1378 -1606 0
-1188 1378 1606 0
1188 -1378 1606 0
-1606 -1605 -1566 0
1606 1605 -1566 0
-1606 1605 1566 0
1606 -1605 1566 0
-1188 -1378 1607 0
-1188 -1605 1607 0
-1378 -1605 1607 0
1188 1378 -1607 0
1188 1605 -1607 0
1378 1605 -1607 0
-1189 -1379 -1608 0
1189 1379 -1608 0
-1189 1379 1608 0
1189 -1379 1608 0
-1608 -1607 -1567 0
1608 1607 -1567 0
-1608 1607 1567 0
1608 -1607 1567 0
-1189 -1379 1609 0
-1189 -1607 1609 0
-1379 -1607 1609 0
1189 1379 -1609 0
1189 1607 -1609 0
1379 1607 -1609 0
-1190 -1380 -1610 0
1190 1380 -1610 0
-1190 1380 1610 0
1190 -1380 1610 0
-1610 -1609 -1568 0
1610 1609 -1568 0
-1610 1609 1568 0
1610 -1609 1568 0
-1190 -1380 1611 0
-1190 -1609 1611 0
-1380 -1609 1611 0
1190 1380 -1611 0
1190 1609 -1611 0
1380 1609 -1611 0
-1191 -1381 -1612 0
1191 1381 -1612 0
-1191 1381 1612 0
1191 -1381 1612 0
-1612 -1611 -1569 0
1612 1611 -1569 0
-1612 1611 1569 0
1612 -1611 1569 0
-1191 -1381 1613 0
-1191 -1611 1613 0
-1381 -1611 1613 0
1191 1381 -1613 0
1191 1611 -1613 0
1381 1611 -1613 0
-1192 -1382 -1614 0
1192 1382 -1614 0
-1192 1382 1614 0
1192 -1382 1614 0
-1614 -1613 -1570 0
1614 1613 -1570 0
-1614 1613 1570 0
1614 -1613 1570 0
-1192 -1382 1615 0
-1192 -1613 1615 0
-1382 -1613 1615 0
1192 1382 -1615 0
1192 1613 -1615 0
1382 1613 -1615 0
-1193 -1383 -1616 0
1193 1383 -1616 0
-1193 1383 1616 0
1193 -1383 1616 0
-1616 -1615 -1571 0
1616 1615 -1571 0
-1616 1615 1571 0
1616 -1615 1571 0
-1193 -1383 1617 0
-1193 -1615 1617 0
-1383 -1615 1617 0
1193 1383 -1617 0
1193 1615 -1617 0
1383 1615 -1617 0
-1194 -1384 -1618 0
1194 1384 -1618 0
-1194 1384 1618 0
1194 -1384 1618 0
-1618 -1617 -1572 0
1618 1617 -1572 0
-1618 1617 1572 0
1618 -1617 1572 0
-1194 -1384 1619 0
-1194 -1617 1619 0
-1384 -1617 1619 0
1194 1384 -1619 0
1194 1617 -1619 0
1384 1617 -1619 0
-1195 -1385 -1620 0
1195 1385 -1620 0
-1195 1385 1620 0
1195 -1385 1620 0
-1620 -1619 -1573 0
1620 1619 -1573 0
-1620 1619 1573 0
1620 -1619 1573 0
-1195 -1385 1621 0
-1195 -1619 1621 0
-1385 -1619 1621 0
1195 1385 -1621 0
1195 1619 -1621 0
1385 1619 -1621 0
-1196 -1386 -1622 0
1196 1386 -1622 0
-1196 1386 1622 0
1196 -1386 1622 0
-1622 -1621 -1574 0
1622 1621 -1574 0
-1622 1621 1574 0
1622 -1621 1574 0
-1196 -1386 1623 0
-1196 -1621 1623 0
-1386 -1621 1623 0
1196 1386 -1623 0
1196 1621 -1623 0
1386 1621 -1623 0
-1197 -1387 -1624 0
1197 1387 -1624 0
-1197 1387 1624 0
1197 -1387 1624 0
-1624 -1623 -1575 0
1624 1623 -1575 0
-1624 1623 1575 0
1624 -1623 1575 0
-1197 -1387 1625 0
-1197 -1623 1625 0
-1387 -1623 1625 0
1197 1387 -1625 0
1197 1623 -1625 0
1387 1623 -1625 0
-1198 -1388 -1626 0
1198 1388 -1626 0
-1198 1388 1626 0
1198 -1388 1626 0
-1626 -1625 -1576 0
1626 1625 -1576 0
-1626 1625 1576 0
1626 -1625 1576 0
-1198 -1388 1627 0
-1198 -1625 1627 0
-1388 -1625 1627 0
1198 1388 -1627 0
1198 1625 -1627 0
1388 1625 -1627 0
-1199 -1389 -1628 0
1199 1389 -1628 0
-1199 1389 1628 0
1199 -1389 1628 0
-1628 -1627 -1577 0
1628 1627 -1577 0
-1628 1627 1577 0
1628 -1627 1577 0
-1199 -1389 1629 0
-1199 -1627 1629 0
-1389 -1627 1629 0
1199 1389 -1629 0
1199 1627 -1629 0
1389 1627 -1629 0
-1200 -1390 -1630 0
1200 1390 -1630 0
-1200 1390 1630 0
1200 -1390 1630 0
-1630 -1629 -1578 0
1630 1629 -1578 0
-1630 1629 1578 0
1630 -1629 1578 0
-1200 -1390 1631 0
-1200 -1629 1631 0
-1390 -1629 1631 0
1200 1390 -1631 0
1200 1629 -1631 0
1390 1629 -1631 0
-1201 -1391 -1632 0
1201 1391 -1632 0
-1201 1391 1632 0
1201 -1391 1632 0
-1632 -1631 -1579 0
1632 1631 -1579 0
-1632 1631 1579 0
1632 -1631 1579 0
-1201 -1391 1633 0
-1201 -1631 1633 0
-1391 -1631 1633 0
1201 1391 -1633 0
1201 1631 -1633 0
1391 1631 -1633 0
-1202 -1392 -1634 0
1202 1392 -1634 0
-1202 1392 1634 0
1202 -1392 1634 0
-1634 -1633 -1580 0
1634 1633 -1580 0
-1634 1633 1580 0
1634 -1633 1580 0
-1202 -1392 1635 0
-1202 -1633 1635 0
-1392 -1633 1635 0
1202 1392 -1635 0
1202 1633 -1635 0
1392 1633 -1635 0
-1203 -1393 -1636 0
1203 1393 -1636 0
-1203 1393 1636 0
1203 -1393 1636 0
-1636 -1635 -1581 0
1636 1635 -1581 0
-1636 1635 1581 0
1636 -1635 1581 0
-1203 -1393 1637 0
-1203 -1635 1637 0
-1393 -1635 1637 0
1203 1393 -1637 0
1203 1635 -1637 0
1393 1635 -1637 0
-1204 -1394 -1638 0
1204 1394 -1638 0
-1204 1394 1638 0
1204 -1394 1638 0
-1638 -1637 -1582 0
1638 1637 -1582 0
-1638 1637 1582 0
1638 -1637 1582 0
-1204 -1394 1639 0
-1204 -1637 1639 0
-1394 -1637 1639 0
1204 1394 -1639 0
1204 1637 -1639 0
1394 1637 -1639 0
-1205 -1395 -1640 0
1205 1395 -1640 0
-1205 1395 1640 0
1205 -1395 1640 0
-1640 -1639 -1583 0
1640 1639 -1583 0
-1640 1639 1583 0
1640 -1639 1583 0
-1205 -1395 1641 0
-1205 -1639 1641 0
-1395 -1639 1641 0
1205 1395 -1641 0
1205 1639 -1641 0
1395 1639 -1641 0
-1206 -1396 -1642 0
1206 1396 -1642 0
-1206 1396 1642 0
1206 -1396 1642 0
-1642 -1641 -1584 0
1642 1641 -1584 0
-1642 1641 1584 0
1642 -1641 1584 0
-1206 -1396 1643 0
-1206 -1641 1643 0
-1396 -1641 1643 0
1206 1396 -1643 0
1206 1641 -1643 0
1396 1641 -1643 0
-1207 -1397 -1644 0
1207 1397 -1644 0
-1207 1397 1644 0
1207 -1397 1644 0
-1644 -1643 -1585 0
1644 1643 -1585 0
-1644 1643 1585 0
1644 -1643 1585 0
-1207 -1397 1645 0
-1207 -1643 1645 0
-1397 -1643 1645 0
1207 1397 -1645 0
1207 1643 -1645 0
1397 1643 -1645 0
-1208 -1398 -1646 0
1208 1398 -1646 0
-1208 1398 1646 0
1208 -1398 1646 0
-1646 -1645 -1586 0
1646 1645 -1586 0
-1646 1645 1586 0
1646 -1645 1586 0
-1208 -1398 1647 0
-1208 -1645 1647 0
-1398 -1645 1647 0
1208 1398 -1647 0
1208 1645 -1647 0
1398 1645 -1647 0
-1209 -1399 -1648 0
1209 1399 -1648 0
-1209 1399 1648 0
1209 -1399 1648 0
-1648 -1647 -1587 0
1648 1647 -1587 0
-1648 1647 1587 0
1648 -1647 1587 0
-1209 -1399 1649 0
-1209 -1647 1649 0
-1399 -1647 1649 0
1209 1399 -1649 0
1209 1647 -1649 0
1399 1647 -1649 0
-1210 -1400 -1650 0
1210 1400 -1650 0
-1210 1400 1650 0
1210 -1400 1650 0
-1650 -1649 -1588 0
1650 1649 -1588 0
-1650 1649 1588 0
1650 -1649 1588 0
1651 0
1652 0
1653 0
-1654 0
-1655 0
1656 0
1657 0
-1658 0
-1659 0
1660 0
1661 0
-1662 0
-1663 0
1664 0
1665 0
1666 0
1667 0
-1668 0
-1669 0
1670 0
-1671 0
-1672 0
-1673 0
-1674 0
-1675 0
1676 0
-1677 0
1678 0
-1679 0
1680 0
1681 0
-1682 0
-1557 -1651 -1683 0
1557 1651 -1683 0
-1557 1651 1683 0
1557 -1651 1683 0
-1557 -1651 1715 0
1557 -1715 0
1651 -1715 0
-1558 -1652 -1716 0
1558 1652 -1716 0
-1558 1652 1716 0
1558 -1652 1716 0
-1716 -1715 -1684 0
1716 1715 -1684 0
-1716 1715 1684 0
1716 -1715 1684 0
-1558 -1652 1717 0
-1558 -1715 1717 0
-1652 -1715 1717 0
1558 1652 -1717 0
1558 1715 -1717 0
1652 1715 -1717 0
-1559 -1653 -1718 0
1559 1653 -1718 0
-1559 1653 1718 0
1559 -1653 1718 0
-1718 -1717 -1685 0
1718 1717 -1685 0
-1718 1717 1685 0
1718 -1717 1685 0
-1559 -1653 1719 0
-1559 -1717 1719 0
-1653 -1717 1719 0
1559 1653 -1719 0
1559 1717 -1719 0
1653 1717 -1719 0
-1560 -1654 -1720 0
1560 1654 -1720 0
-1560 1654 1720 0
1560 -1654 1720 0
-1720 -1719 -1686 0
1720 1719 -1686 0
-1720 1719 1686 0
1720 -1719 1686 0
-1560 -1654 1721 0
-1560 -1719 1721 0
-1654 -1719 1721 0
1560 1654 -1721 0
1560 1719 -1721 0
1654 1719 -1721 0
-1561 -1655 -1722 0
1561 1655 -1722 0
-1561 1655 1722 0
1561 -1655 1722 0
-1722 -1721 -1687 0
1722 1721 -1687 0
-1722 1721 1687 0
1722 -1721 1687 0
-1561 -1655 1723 0
-1561 -1721 1723 0
-1655 -1721 1723 0
1561 1655 -1723 0
1561 1721 -1723 0
1655 1721 -1723 0
-1562 -1656 -1724 0
1562 1656 -1724 0
-1562 1656 1724 0
1562 -1656 1724 0
-1724 -1723 -1688 0
1724 1723 -1688 0
-1724 1723 1688 0
1724 -1723 1688 0
-1562 -1656 1725 0
-1562 -1723 1725 0
-1656 -1723 1725 0
1562 1656 -1725 0
1562 1723 -1725 0
1656 1723 -1725 0
-1563 -1657 -1726 0
1563 1657 -1726 0
-1563 1657 1726 0
1563 -1657 1726 0
-1726 -1725 -1689 0
1726 1725 -1689 0
-1726 1725 1689 0
1726 -1725 1689 0
-1563 -1657 1727 0
-1563 -1725 1727 0
-1657 -1725 1727 0
1563 1657 -1727 0
1563 1725 -1727 0
1657 1725 -1727 0
-1564 -1658 -1728 0
1564 1658 -1728 0
-1564 1658 1728 0
1564 -1658 1728 0
-1728 -1727 -1690 0
1728 1727 -1690 0
-1728 1727 1690 0
1728 -1727 1690 0
-1564 -1658 1729 0
-1564 -1727 1729 0
-1658 -1727 1729 0
1564 1658 -1729 0
1564 1727 -1729 0
1658 1727 -1729 0
-1565 -1659 -1730 0
1565 1659 -1730 0
-1565 1659 1730 0
1565 -1659 1730 0
-1730 -1729 -1691 0
1730 1729 -1691 0
-1730 1729 1691 0
1730 -1729 1691 0
-1565 -1659 1731 0
-1565 -1729 1731 0
-1659 -1729 1731 0
1565 1659 -1731 0
1565 1729 -1731 0
1659 1729 -1731 0
-1566 -1660 -1732 0
1566 1660 -1732 0
-1566 1660 1732 0
1566 -1660 1732 0
-1732 -1731 -1692 0
1732 1731 -1692 0
-1732 1731 1692 0
1732 -1731 1692 0
-1566 -1660 1733 0
-1566 -1731 1733 0
-1660 -1731 1733 0
1566 1660 -1733 0
1566 1731 -1733 0
1660 1731 -1733 0
-1567 -1661 -1734 0
1567 1661 -1734 0
-1567 1661 1734 0
1567 -1661 1734 0
-1734 -1733 -1693 0
1734 1733 -1693 0
-1734 1733 1693 0
1734 -1733 1693 0
-1567 -1661 1735 0
-1567 -1733 1735 0
-1661 -1733 1735 0
1567 1661 -1735 0
1567 1733 -1735 0
1661 1733 -1735 0
-1568 -1662 -1736 0
1568 1662 -1736 0
-1568 1662 1736 0
1568 -1662 1736 0
-1736 -1735 -1694 0
1736 1735 -1694 0
-1736 1735 1694 0
1736 -1735 1694 0
-1568 -1662 1737 0
-1568 -1735 1737 0
-1662 -1735 1737 0
1568 1662 -1737 0
1568 1735 -1737 0
1662 1735 -1737 0
-1569 -1663 -1738 0
1569 1663 -1738 0
-1569 1663 1738 0
1569 -1663 1738 0
-1738 -1737 -1695 0
1738 1737 -1695 0
-1738 1737 1695 0
1738 -1737 1695 0
-1569 -1663 1739 0
-1569 -1737 1739 0
-1663 -1737 1739 0
1569 1663 -1739 0
1569 1737 -1739 0
1663 1737 -1739 0
-1570 -1664 -1740 0
1570 1664 -1740 0
-1570 1664 1740 0
1570 -1664 1740 0
-1740 -1739 -1696 0
1740 1739 -1696 0
-1740 1739 1696 0
1740 -1739 1696 0
-1570 -1664 1741 0
-1570 -1739 1741 0
-1664 -1739 1741 0
1570 1664 -1741 0
1570 1739 -1741 0
1664 1739 -1741 0
-1571 -1665 -1742 0
1571 1665 -1742 0
-1571 1665 1742 0
1571 -1665 1742 0
-1742 -1741 -1697 0
1742 1741 -1697 0
-1742 1741 1697 0
1742 -1741 1697 0
-1571 -1665 1743 0
-1571 -1741 1743 0
-1665 -1741 1743 0
1571 1665 -1743 0
1571 1741 -1743 0
1665 1741 -1743 0
-1572 -1666 -1744 0
1572 1666 -1744 0
-1572 1666 1744 0
1572 -1666 1744 0
-1744 -1743 -1698 0
1744 1743 -1698 0
-1744 1743 1698 0
1744 -1743 1698 0
-1572 -1666 1745 0
-1572 -1743 1745 0
-1666 -1743 1745 0
1572 1666 -1745 0
1572 1743 -1745 0
1666 1743 -1745 0
-1573 -1667 -1746 0
1573 1667 -1746 0
-1573 1667 1746 0
1573 -1667 1746 0
-1746 -1745 -1699 0
1746 1745 -1699 0
-1746 1745 1699 0
1746 -1745 1699 0
-1573 -1667 1747 0
-1573 -1745 1747 0
-1667 -1745 1747 0
1573 1667 -1747 0
1573 1745 -1747 0
1667 1745 -1747 0
-1574 -1668 -1748 0
1574 1668 -1748 0
-1574 1668 1748 0
1574 -1668 1748 0
-1748 -1747 -1700 0
1748 1747 -1700 0
-1748 1747 1700 0
1748 -1747 1700 0
-1574 -1668 1749 0
-1574 -1747 1749 0
-1668 -1747 1749 0
1574 1668 -1749 0
1574 1747 -1749 0
1668 1747 -1749 0
-1575 -1669 -1750 0
1575 1669 -1750 0
-1575 1669 1750 0
1575 -1669 1750 0
-1750 -1749 -1701 0
1750 1749 -1701 0
-1750 1749 1701 0
1750 -1749 1701 0
-1575 -1669 1751 0
-1575 -1749 1751 0
-1669 -1749 1751 0
1575 1669 -1751 0
1575 1749 -1751 0
1669 1749 -1751 0
-1576 -1670 -1752 0
1576 1670 -1752 0
-1576 1670 1752 0
1576 -1670 1752 0
-1752 -1751 -1702 0
1752 1751 -1702 0
-1752 1751 1702 0
1752 -1751 1702 0
-1576 -1670 1753 0
-1576 -1751 1753 0
-1670 -1751 1753 0
1576 1670 -1753 0
1576 1751 -1753 0
1670 1751 -1753 0
-1577 -1671 -1754 0
1577 1671 -1754 0
-1577 1671 1754 0
1577 -1671 1754 0
-1754 -1753 -1703 0
1754 1753 -1703 0
-1754 1753 1703 0
1754 -1753 1703 0
-1577 -1671 1755 0
-1577 -1753 1755 0
-1671 -1753 1755 0
1577 1671 -1755 0
1577 1753 -1755 0
1671 1753 -1755 0
-1578 -1672 -1756 0
1578 1672 -1756 0
-1578 1672 1756 0
1578 -1672 1756 0
-1756 -1755 -1704 0
1756 1755 -1704 0
-1756 1755 1704 0
1756 -1755 1704 0
-1578 -1672 1757 0
-1578 -1755 1757 0
-1672 -1755 1757 0
1578 1672 -1757 0
1578 1755 -1757 0
1672 1755 -1757 0
-1579 -1673 -1758 0
1579 1673 -1758 0
-1579 1673 1758 0
1579 -1673 1758 0
-1758 -1757 -1705 0
1758 1757 -1705 0
-1758 1757 1705 0
1758 -1757 1705 0
-1579 -1673 1759 0
-1579 -1757 1759 0
-1673 -1757 1759 0
1579 1673 -1759 0
1579 1757 -1759 0
1673 1757 -1759 0
-1580 -1674 -1760 0
1580 1674 -1760 0
-1580 1674 1760 0
1580 -1674 1760 0
-1760 -1759 -1706 0
1760 1759 -1706 0
-1760 1759 1706 0
1760 -1759 1706 0
-1580 -1674 1761 0
-1580 -1759 1761 0
-1674 -1759 1761 0
1580 1674 -1761 0
1580 1759 -1761 0
1674 1759 -1761 0
-1581 -1675 -1762 0
1581 1675 -1762 0
-1581 1675 1762 0
1581 -1675 1762 0
-1762 -1761 -1707 0
1762 1761 -1707 0
-1762 1761 1707 0
1762 -1761 1707 0
-1581 -1675 1763 0
-1581 -1761 1763 0
-1675 -1761 1763 0
1581 1675 -1763 0
1581 1761 -1763 0
1675 1761 -1763 0
-1582 -1676 -1764 0
1582 1676 -1764 0
-1582 1676 1764 0
1582 -1676 1764 0
-1764 -1763 -1708 0
1764 1763 -1708 0
-1764 1763 1708 0
1764 -1763 1708 0
-1582 -1676 1765 0
-1582 -1763 1765 0
-1676 -1763 1765 0
1582 1676 -1765 0
1582 1763 -1765 0
1676 1763 -1765 0
-1583 -1677 -1766 0
1583 1677 -1766 0
-1583 1677 1766 0
1583 -1677 1766 0
-1766 -1765 -1709 0
1766 1765 -1709 0
-1766 1765 1709 0
1766 -1765 1709 0
-1583 -1677 1767 0
-1583 -1765 1767 0
-1677 -1765 1767 0
1583 1677 -1767 0
1583 1765 -1767 0
1677 1765 -1767 0
-1584 -1678 -1768 0
1584 1678 -1768 0
-1584 1678 1768 0
1584 -1678 1768 0
-1768 -1767 -1710 0
1768 1767 -1710 0
-1768 1767 1710 0
1768 -1767 1710 0
-1584 -1678 1769 0
-1584 -1767 1769 0
-1678 -1767 1769 0
1584 1678 -1769 0
1584 1767 -1769 0
1678 1767 -1769 0
-1585 -1679 -1770 0
1585 1679 -1770 0
-1585 1679 1770 0
1585 -1679 1770 0
-1770 -1769 -1711 0
1770 1769 -1711 0
-1770 1769 1711 0
1770 -1769 1711 0
-1585 -1679 1771 0
-1585 -1769 1771 0
-1679 -1769 1771 0
1585 1679 -1771 0
1585 1769 -1771 0
1679 1769 -1771 0
-1586 -1680 -1772 0
1586 1680 -1772 0
-1586 1680 1772 0
1586 -1680 1772 0
-1772 -1771 -1712 0
1772 1771 -1712 0
-1772 1771 1712 0
1772 -1771 1712 0
-1586 -1680 1773 0
-1586 -1771 1773 0
-1680 -1771 1773 0
1586 1680 -1773 0
1586 1771 -1773 0
1680 1771 -1773 0
-1587 -1681 -1774 0
1587 1681 -1774 0
-1587 1681 1774 0
1587 -1681 1774 0
-1774 -1773 -1713 0
1774 1773 -1713 0
-1774 1773 1713 0
1774 -1773 1713 0
-1587 -1681 1775 0
-1587 -1773 1775 0
-1681 -1773 1775 0
1587 1681 -1775 0
1587 1773 -1775 0
1681 1773 -1775 0
-1588 -1682 -1776 0
1588 1682 -1776 0
-1588 1682 1776 0
1588 -1682 1776 0
-1776 -1775 -1714 0
1776 1775 -1714 0
-1776 1775 1714 0
1776 -1775 1714 0
1777 0
-1778 0
1779 0
-1780 0
-1781 0
-1782 0
-1783 0
1784 0
-1785 0
1786 0
1787 0
1788 0
-1789 0
1790 0
-1791 0
1792 0
1793 0
1794 0
1795 0
-1796 0
-1797 0
1798 0
1799 0
-1800 0
1801 0
1802 0
-1803 0
1804 0
1805 0
1806 0
-1807 0
1808 0
-513 -1777 -1809 0
513 1777 -1809 0
-513 1777 1809 0
513 -1777 1809 0
-513 -1777 1841 0
513 -1841 0
1777 -1841 0
-514 -1778 -1842 0
514 1778 -1842 0
-514 1778 1842 0
514 -1778 1842 0
-1842 -1841 -1810 0
1842 1841 -1810 0
-1842 1841 1810 0
1842 -1841 1810 0
-514 -1778 1843 0
-514 -1841 1843 0
-1778 -1841 1843 0
514 1778 -1843 0
514 1841 -1843 0
1778 1841 -1843 0
-515 -1779 -1844 0
515 1779 -1844 0
-515 1779 1844 0
515 -1779 1844 0
-1844 -1843 -1811 0
1844 1843 -1811 0
-1844 1843 1811 0
1844 -1843 1811 0
-515 -1779 1845 0
-515 -1843 1845 0
-1779 -1843 1845 0
515 1779 -1845 0
515 1843 -1845 0
1779 1843 -1845 0
-516 -1780 -1846 0
516 1780 -1846 0
-516 1780 1846 0
516 -1780 1846 0
-1846 -1845 -1812 0
1846 1845 -1812 0
-1846 1845 1812 0
1846 -1845 1812 0
-516 -1780 1847 0
-516 -1845 1847 0
-1780 -1845 1847 0
516 1780 -1847 0
516 1845 -1847 0
1780 1845 -1847 0
-517 -1781 -1848 0
517 1781 -1848 0
-517 1781 1848 0
517 -1781 1848 0
-1848 -1847 -1813 0
1848 1847 -1813 0
-1848 1847 1813 0
1848 -1847 1813 0
-517 -1781 1849 0
-517 -1847 1849 0
-1781 -1847 1849 0
517 1781 -1849 0
517 1847 -1849 0
1781 1847 -1849 0
-518 -1782 -1850 0
518 1782 -1850 0
-518 1782 1850 0
518 -1782 1850 0
-1850 -1849 -1814 0
1850 1849 -1814 0
-1850 1849 1814 0
1850 -1849 1814 0
-518 -1782 1851 0
-518 -1849 1851 0
-1782 -1849 1851 0
518 1782 -1851 0
518 1849 -1851 0
1782 1849 -1851 0
-519 -1783 -1852 0
519 1783 -1852 0
-519 1783 1852 0
519 -1783 1852 0
-1852 -1851 -1815 0
1852 1851 -1815 0
-1852 1851 1815 0
1852 -1851 1815 0
-519 -1783 1853 0
-519 -1851 1853 0
-1783 -1851 1853 0
519 1783 -1853 0
519 1851 -1853 0
1783 1851 -1853 0
-520 -1784 -1854 0
520 1784 -1854 0
-520 1784 1854 0
520 -1784 1854 0
-1854 -1853 -1816 0
1854 1853 -1816 0
-1854 1853 1816 0
1854 -1853 1816 0
-520 -1784 1855 0
-520 -1853 1855 0
-1784 -1853 1855 0
520 1784 -1855 0
520 1853 -1855 0
1784 1853 -1855 0
-521 -1785 -1856 0
521 1785 -1856 0
-521 1785 1856 0
521 -1785 1856 0
-1856 -1855 -1817 0
1856 1855 -1817 0
-1856 1855 1817 0
1856 -1855 1817 0
-521 -1785 1857 0
-521 -1855 1857 0
-1785 -1855 1857 0
521 1785 -1857 0
521 1855 -1857 0
1785 1855 -1857 0
-522 -1786 -1858 0
522 1786 -1858 0
-522 1786 1858 0
522 -1786 1858 0
-1858 -1857 -1818 0
1858 1857 -1818 0
-1858 1857 1818 0
1858 -1857 1818 0
-522 -1786 1859 0
-522 -1857 1859 0
-1786 -1857 1859 0
522 1786 -1859 0
522 1857 -1859 0
1786 1857 -1859 0
-523 -1787 -1860 0
523 1787 -1860 0
-523 1787 1860 0
523 -1787 1860 0
-1860 -1859 -1819 0
1860 1859 -1819 0
-1860 1859 1819 0
1860 -1859 1819 0
-523 -1787 1861 0
-523 -1859 1861 0
-1787 -1859 1861 0
523 1787 -1861 0
523 1859 -1861 0
1787 1859 -1861 0
-524 -1788 -1862 0
524 1788 -1862 0
-524 1788 1862 0
524 -1788 1862 0
-1862 -1861 -1820 0
1862 1861 -1820 0
-1862 1861 1820 0
1862 -1861 1820 0
-524 -1788 1863 0
-524 -1861 1863 0
-1788 -1861 1863 0
524 1788 -1863 0
524 1861 -1863 0
1788 1861 -1863 0
-525 -1789 -1864 0
525 1789 -1864 0
-525 1789 1864 0
525 -1789 1864 0
-1864 -1863 -1821 0
1864 1863 -1821 0
-1864 1863 1821 0
1864 -1863 1821 0
-525 -1789 1865 0
-525 -1863 1865 0
-1789 -1863 1865 0
525 1789 -1865 0
525 1863 -1865 0
1789 1863 -1865 0
-526 -1790 -1866 0
526 1790 -1866 0
-526 1790 1866 0
526 -1790 1866 0
-1866 -1865 -1822 0
1866 1865 -1822 0
-1866 1865 1822 0
1866 -1865 1822 0
-526 -1790 1867 0
-526 -1865 1867 0
-1790 -1865 1867 0
526 1790 -1867 0
526 1865 -1867 0
1790 1865 -1867 0
-527 -1791 -1868 0
527 1791 -1868 0
-527 1791 1868 0
527 -1791 1868 0
-1868 -1867 -1823 0
1868 1867 -1823 0
-1868 1867 1823 0
1868 -1867 1823 0
-527 -1791 1869 0
-527 -1867 1869 0
-1791 -1867 1869 0
527 1791 -1869 0
527 1867 -1869 0
1791 1867 -1869 0
-528 -1792 -1870 0
528 1792 -1870 0
-528 1792 1870 0
528 -1792 1870 0
-1870 -1869 -1824 0
1870 1869 -1824 0
-1870 1869 1824 0
1870 -1869 1824 0
-528 -1792 1871 0
-528 -1869 1871 0
-1792 -1869 1871 0
528 1792 -1871 0
528 1869 -1871 0
1792 1869 -1871 0
-529 -1793 -1872 0
529 1793 -1872 0
-529 1793 1872 0
529 -1793 1872 0
-1872 -1871 -1825 0
1872 1871 -1825 0
-1872 1871 1825 0
1872 -1871 1825 0
-529 -1793 1873 0
-529 -1871 1873 0
-1793 -1871 1873 0
529 1793 -1873 0
529 1871 -1873 0
1793 1871 -1873 0
-530 -1794 -1874 0
530 1794 -1874 0
-530 1794 1874 0
530 -1794 1874 0
-1874 -1873 -1826 0
1874 1873 -1826 0
-1874 1873 1826 0
1874 -1873 1826 0
-530 -1794 1875 0
-530 -1873 1875 0
-1794 -1873 1875 0
530 1794 -1875 0
530 1873 -1875 0
1794 1873 -1875 0
-531 -1795 -1876 0
531 1795 -1876 0
-531 1795 1876 0
531 -1795 1876 0
-1876 -1875 -1827 0
1876 1875 -1827 0
-1876 1875 1827 0
1876 -1875 1827 0
-531 -1795 1877 0
-531 -1875 1877 0
-1795 -1875 1877 0
531 1795 -1877 0
531 1875 -1877 0
1795 1875 -1877 0
-532 -1796 -1878 0
532 1796 -1878 0
-532 1796 1878 0
532 -1796 1878 0
-1878 -1877 -1828 0
1878 1877 -1828 0
-1878 1877 1828 0
1878 -1877 1828 0
-532 -1796 1879 0
-532 -1877 1879 0
-1796 -1877 1879 0
532 1796 -1879 0
532 1877 -1879 0
1796 1877 -1879 0
-533 -1797 -1880 0
533 1797 -1880 0
-533 1797 1880 0
533 -1797 1880 0
-1880 -1879 -1829 0
1880 1879 -1829 0
-1880 1879 1829 0
1880 -1879 1829 0
-533 -1797 1881 0
-533 -1879 1881 0
-1797 -1879 1881 0
533 1797 -1881 0
533 1879 -1881 0
1797 1879 -1881 0
-534 -1798 -1882 0
534 1798 -1882 0
-534 1798 1882 0
534 -1798 1882 0
-1882 -1881 -1830 0
1882 1881 -1830 0
-1882 1881 1830 0
1882 -1881 1830 0
-534 -1798 1883 0
-534 -1881 1883 0
-1798 -1881 1883 0
534 1798 -1883 0
534 1881 -1883 0
1798 1881 -1883 0
-535 -1799 -1884 0
535 1799 -1884 0
-535 1799 1884 0
535 -1799 1884 0
-1884 -1883 -1831 0
1884 1883 -1831 0
-1884 1883 1831 0
1884 -1883 1831 0
-535 -1799 1885 0
-535 -1883 1885 0
-1799 -1883 1885 0
535 1799 -1885 0
535 1883 -1885 0
1799 1883 -1885 0
-536 -1800 -1886 0
536 1800 -1886 0
-536 1800 1886 0
536 -1800 1886 0
-1886 -1885 -1832 0
1886 1885 -1832 0
-1886 1885 1832 0
1886 -1885 1832 0
-536 -1800 1887 0
-536 -1885 1887 0
-1800 -1885 1887 0
536 1800 -1887 0
536 1885 -1887 0
1800 1885 -1887 0
-537 -1801 -1888 0
537 1801 -1888 0
-537 1801 1888 0
537 -1801 1888 0
-1888 -1887 -1833 0
1888 1887 -1833 0
-1888 1887 1833 0
1888 -1887 1833 0
-537 -1801 1889 0
-537 -1887 1889 0
-1801 -1887 1889 0
537 1801 -1889 0
537 1887 -1889 0
1801 1887 -1889 0
-538 -1802 -1890 0
538 1802 -1890 0
-538 1802 1890 0
538 -1802 1890 0
-1890 -1889 -1834 0
1890 1889 -1834 0
-1890 1889 1834 0
1890 -1889 1834 0
-538 -1802 1891 0
-538 -1889 1891 0
-1802 -1889 1891 0
538 1802 -1891 0
538 1889 -1891 0
1802 1889 -1891 0
-539 -1803 -1892 0
539 1803 -1892 0
-539 1803 1892 0
539 -1803 1892 0
-1892 -1891 -1835 0
1892 1891 -1835 0
-1892 1891 1835 0
1892 -1891 1835 0
-539 -1803 1893 0
-539 -1891 1893 0
-1803 -1891 1893 0
539 1803 -1893 0
539 1891 -1893 0
1803 1891 -1893 0
-540 -1804 -1894 0
540 1804 -1894 0
-540 1804 1894 0
540 -1804 1894 0
-1894 -1893 -1836 0
1894 1893 -1836 0
-1894 1893 1836 0
1894 -1893 1836 0
-540 -1804 1895 0
-540 -1893 1895 0
-1804 -1893 1895 0
540 1804 -1895 0
540 1893 -1895 0
1804 1893 -1895 0
-541 -1805 -1896 0
541 1805 -1896 0
-541 1805 1896 0
541 -1805 1896 0
-1896 -1895 -1837 0
1896 1895 -1837 0
-1896 1895 1837 0
1896 -1895 1837 0
-541 -1805 1897 0
-541 -1895 1897 0
-1805 -1895 1897 0
541 1805 -1897 0
541 1895 -1897 0
1805 1895 -1897 0
-542 -1806 -1898 0
542 1806 -1898 0
-542 1806 1898 0
542 -1806 1898 0
-1898 -1897 -1838 0
1898 1897 -1838 0
-1898 1897 1838 0
1898 -1897 1838 0
-542 -1806 1899 0
-542 -1897 1899 0
-1806 -1897 1899 0
542 1806 -1899 0
542 1897 -1899 0
1806 1897 -1899 0
-543 -1807 -1900 0
543 1807 -1900 0
-543 1807 1900 0
543 -1807 1900 0
-1900 -1899 -1839 0
1900 1899 -1839 0
-1900 1899 1839 0
1900 -1899 1839 0
-543 -1807 1901 0
-543 -1899 1901 0
-1807 -1899 1901 0
543 1807 -1901 0
543 1899 -1901 0
1807 1899 -1901 0
-544 -1808 -1902 0
544 1808 -1902 0
-544 1808 1902 0
544 -1808 1902 0
-1902 -1901 -1840 0
1902 1901 -1840 0
-1902 1901 1840 0
1902 -1901 1840 0
-1903 0
1904 0
-1905 0
-1906 0
1907 0
1908 0
1909 0
-1910 0
1911 0
1912 0
-1913 0
-1914 0
1915 0
1916 0
1917 0
1918 0
-1919 0
1920 0
1921 0
1922 0
-1923 0
1924 0
1925 0
-1926 0
-1927 0
-1928 0
1929 0
1930 0
1931 0
1932 0
-1933 0
-1934 0
-545 -1903 -1935 0
545 1903 -1935 0
-545 1903 1935 0
545 -1903 1935 0
-545 -1903 1967 0
545 -1967 0
1903 -1967 0
-546 -1904 -1968 0
546 1904 -1968 0
-546 1904 1968 0
546 -1904 1968 0
-1968 -1967 -1936 0
1968 1967 -1936 0
-1968 1967 1936 0
1968 -1967 1936 0
-546 -1904 1969 0
-546 -1967 1969 0
-1904 -1967 1969 0
546 1904 -1969 0
546 1967 -1969 0
1904 1967 -1969 0
-547 -1905 -1970 0
547 1905 -1970 0
-547 1905 1970 0
547 -1905 1970 0
-1970 -1969 -1937 0
1970 1969 -1937 0
-1970 1969 1937 0
1970 -1969 1937 0
-547 -1905 1971 0
-547 -1969 1971 0
-1905 -1969 1971 0
547 1905 -1971 0
547 1969 -1971 0
1905 1969 -1971 0
-548 -1906 -1972 0
548 1906 -1972 0
-548 1906 1972 0
548 -1906 1972 0
-1972 -1971 -1938 0
1972 1971 -1938 0
-1972 1971 1938 0
1972 -1971 1938 0
-548 -1906 1973 0
-548 -1971 1973 0
-1906 -1971 1973 0
548 1906 -1973 0
548 1971 -1973 0
1906 1971 -1973 0
-549 -1907 -1974 0
549 1907 -1974 0
-549 1907 1974 0
549 -1907 1974 0
-1974 -1973 -1939 0
1974 1973 -1939 0
-1974 1973 1939 0
1974 -1973 1939 0
-549 -1907 1975 0
-549 -1973 1975 0
-1907 -1973 1975 0
549 1907 -1975 0
549 1973 -1975 0
1907 1973 -1975 0
-550 -1908 -1976 0
550 1908 -1976 0
-550 1908 1976 0
550 -1908 1976 0
-1976 -1975 -1940 0
1976 1975 -1940 0
-1976 1975 1940 0
1976 -1975 1940 0
-550 -1908 1977 0
-550 -1975 1977 0
-1908 -1975 1977 0
550 1908 -1977 0
550 1975 -1977 0
1908 1975 -1977 0
-551 -1909 -1978 0
551 1909 -1978 0
-551 1909 1978 0
551 -1909 1978 0
-1978 -1977 -1941 0
1978 1977 -1941 0
-1978 1977 1941 0
1978 -1977 1941 0
-551 -1909 1979 0
-551 -1977 1979 0
-1909 -1977 1979 0
551 1909 -1979 0
551 1977 -1979 0
1909 1977 -1979 0
-552 -1910 -1980 0
552 1910 -1980 0
-552 1910 1980 0
552 -1910 1980 0
-1980 -1979 -1942 0
1980 1979 -1942 0
-1980 1979 1942 0
1980 -1979 1942 0
-552 -1910 1981 0
-552 -1979 1981 0
-1910 -1979 1981 0
552 1910 -1981 0
552 1979 -1981 0
1910 1979 -1981 0
-553 -1911 -1982 0
553 1911 -1982 0
-553 1911 1982 0
553 -1911 1982 0
-1982 -1981 -1943 0
1982 1981 -1943 0
-1982 1981 1943 0
1982 -1981 1943 0
-553 -1911 1983 0
-553 -1981 1983 0
-1911 -1981 1983 0
553 1911 -1983 0
553 1981 -1983 0
1911 1981 -1983 0
-554 -1912 -1984 0
554 1912 -1984 0
-554 1912 1984 0
554 -1912 1984 0
-1984 -1983 -1944 0
1984 1983 -1944 0
-1984 1983 1944 0
1984 -1983 1944 0
-554 -1912 1985 0
-554 -1983 1985 0
-1912 -1983 1985 0
554 1912 -1985 0
554 1983 -1985 0
1912 1983 -1985 0
-555 -1913 -1986 0
555 1913 -1986 0
-555 1913 1986 0
555 -1913 1986 0
-1986 -1985 -1945 0
1986 1985 -1945 0
-1986 1985 1945 0
1986 -1985 1945 0
-555 -1913 1987 0
-555 -1985 1987 0
-1913 -1985 1987 0
555 1913 -1987 0
555 1985 -1987 0
1913 1985 -1987 0
-556 -1914 -1988 0
556 1914 -1988 0
-556 1914 1988 0
556 -1914 1988 0
-1988 -1987 -1946 0
1988 1987 -1946 0
-1988 1987 1946 0
1988 -1987 1946 0
-556 -1914 1989 0
-556 -1987 1989 0
-1914 -1987 1989 0
556 1914 -1989 0
556 1987 -1989 0
1914 1987 -1989 0
-557 -1915 -1990 0
557 1915 -1990 0
-557 1915 1990 0
557 -1915 1990 0
-1990 -1989 -1947 0
1990 1989 -1947 0
-1990 1989 1947 0
1990 -1989 1947 0
-557 -1915 1991 0
-557 -1989 1991 0
-1915 -1989 1991 0
557 1915 -1991 0
557 1989 -1991 0
1915 1989 -1991 0
-558 -1916 -1992 0
558 1916 -1992 0
-558 1916 1992 0
558 -1916 1992 0
-1992 -1991 -1948 0
1992 1991 -1948 0
-1992 1991 1948 0
1992 -1991 1948 0
-558 -1916 1993 0
-558 -1991 1993 0
-1916 -1991 1993 0
558 1916 -1993 0
558 1991 -1993 0
1916 1991 -1993 0
-559 -1917 -1994 0
559 1917 -1994 0
-559 1917 1994 0
559 -1917 1994 0
-1994 -1993 -1949 0
1994 1993 -1949 0
-1994 1993 1949 0
1994 -1993 1949 0
-559 -1917 1995 0
-559 -1993 1995 0
-1917 -1993 1995 0
559 1917 -1995 0
559 1993 -1995 0
1917 1993 -1995 0
-560 -1918 -1996 0
560 1918 -1996 0
-560 1918 1996 0
560 -1918 1996 0
-1996 -1995 -1950 0
1996 1995 -1950 0
-1996 1995 1950 0
1996 -1995 1950 0
-560 -1918 1997 0
-560 -1995 1997 0
-1918 -1995 1997 0
560 1918 -1997 0
560 1995 -1997 0
1918 1995 -1997 0
-561 -1919 -1998 0
561 1919 -1998 0
-561 1919 1998 0
561 -1919 1998 0
-1998 -1997 -1951 0
1998 1997 -1951 0
-1998 1997 1951 0
1998 -1997 1951 0
-561 -1919 1999 0
-561 -1997 1999 0
-1919 -1997 1999 0
561 1919 -1999 0
561 1997 -1999 0
1919 1997 -1999 0
-562 -1920 -2000 0
562 1920 -2000 0
-562 1920 2000 0
562 -1920 2000 0
-2000 -1999 -1952 0
2000 1999 -1952 0
-2000 1999 1952 0
2000 -1999 1952 0
-562 -1920 2001 0
-562 -1999 2001 0
-1920 -1999 2001 0
562 1920 -2001 0
562 1999 -2001 0
1920 1999 -2001 0
-563 -1921 -2002 0
563 1921 -2002 0
-563 1921 2002 0
563 -1921 2002 0
-2002 -2001 -1953 0
2002 2001 -1953 0
-2002 2001 1953 0
2002 -2001 1953 0
-563 -1921 2003 0
-563 -2001 2003 0
-1921 -2001 2003 0
563 1921 -2003 0
563 2001 -2003 0
1921 2001 -2003 0
-564 -1922 -2004 0
564 1922 -2004 0
-564 1922 2004 0
564 -1922 2004 0
-2004 -2003 -1954 0
2004 2003 -1954 0
-2004 2003 1954 0
2004 -2003 1954 0
-564 -1922 2005 0
-564 -2003 2005 0
-1922 -2003 2005 0
564 1922 -2005 0
564 2003 -2005 0
1922 2003 -2005 0
-565 -1923 -2006 0
565 1923 -2006 0
-565 1923 2006 0
565 -1923 2006 0
-2006 -2005 -1955 0
2006 2005 -1955 0
-2006 2005 1955 0
2006 -2005 1955 0
-565 -1923 2007 0
-565 -2005 2007 0
-1923 -2005 2007 0
565 1923 -2007 0
565 2005 -2007 0
1923 2005 -2007 0
-566 -1924 -2008 0
566 1924 -2008 0
-566 1924 2008 0
566 -1924 2008 0
-2008 -2007 -1956 0
2008 2007 -1956 0
-2008 2007 1956 0
2008 -2007 1956 0
-566 -1924 2009 0
-566 -2007 2009 0
-1924 -2007 2009 0
566 1924 -2009 0
566 2007 -2009 0
1924 2007 -2009 0
-567 -1925 -2010 0
567 1925 -2010 0
-567 1925 2010 0
567 -1925 2010 0
-2010 -2009 -1957 0
2010 2009 -1957 0
-2010 2009 1957 0
2010 -2009 1957 0
-567 -1925 2011 0
-567 -2009 2011 0
-1925 -2009 2011 0
567 1925 -2011 0
567 2009 -2011 0
1925 2009 -2011 0
-568 -1926 -2012 0
568 1926 -2012 0
-568 1926 2012 0
568 -1926 2012 0
-2012 -2011 -1958 0
2012 2011 -1958 0
-2012 2011 1958 0
2012 -2011 1958 0
-568 -1926 2013 0
-568 -2011 2013 0
-1926 -2011 2013 0
568 1926 -2013 0
568 2011 -2013 0
1926 2011 -2013 0
-569 -1927 -2014 0
569 1927 -2014 0
-569 1927 2014 0
569 -1927 2014 0
-2014 -2013 -1959 0
2014 2013 -1959 0
-2014 2013 1959 0
2014 -2013 1959 0
-569 -1927 2015 0
-569 -2013 2015 0
-1927 -2013 2015 0
569 1927 -2015 0
569 2013 -2015 0
1927 2013 -2015 0
-570 -1928 -2016 0
570 1928 -2016 0
-570 1928 2016 0
570 -1928 2016 0
-2016 -2015 -1960 0
2016 2015 -1960 0
-2016 2015 1960 0
2016 -2015 1960 0
-570 -1928 2017 0
-570 -2015 2017 0
-1928 -2015 2017 0
570 1928 -2017 0
570 2015 -2017 0
1928 2015 -2017 0
-571 -1929 -2018 0
571 1929 -2018 0
-571 1929 2018 0
571 -1929 2018 0
-2018 -2017 -1961 0
2018 2017 -1961 0
-2018 2017 1961 0
2018 -2017 1961 0
-571 -1929 2019 0
-571 -2017 2019 0
-1929 -2017 2019 0
571 1929 -2019 0
571 2017 -2019 0
1929 2017 -2019 0
-572 -1930 -2020 0
572 1930 -2020 0
-572 1930 2020 0
572 -1930 2020 0
-2020 -2019 -1962 0
2020 2019 -1962 0
-2020 2019 1962 0
2020 -2019 1962 0
-572 -1930 2021 0
-572 -2019 2021 0
-1930 -2019 2021 0
572 1930 -2021 0
572 2019 -2021 0
1930 2019 -2021 0
-573 -1931 -2022 0
573 1931 -2022 0
-573 1931 2022 0
573 -1931 2022 0
-2022 -2021 -1963 0
2022 2021 -1963 0
-2022 2021 1963 0
2022 -2021 1963 0
-573 -1931 2023 0
-573 -2021 2023 0
-1931 -2021 2023 0
573 1931 -2023 0
573 2021 -2023 0
1931 2021 -2023 0
-574 -1932 -2024 0
574 1932 -2024 0
-574 1932 2024 0
574 -1932 2024 0
-2024 -2023 -1964 0
2024 2023 -1964 0
-2024 2023 1964 0
2024 -2023 1964 0
-574 -1932 2025 0
-574 -2023 2025 0
-1932 -2023 2025 0
574 1932 -2025 0
574 2023 -2025 0
1932 2023 -2025 0
-575 -1933 -2026 0
575 1933 -2026 0
-575 1933 2026 0
575 -1933 2026 0
-2026 -2025 -1965 0
2026 2025 -1965 0
-2026 2025 1965 0
2026 -2025 1965 0
-575 -1933 2027 0
-575 -2025 2027 0
-1933 -2025 2027 0
575 1933 -2027 0
575 2025 -2027 0
1933 2025 -2027 0
-576 -1934 -2028 0
576 1934 -2028 0
-576 1934 2028 0
576 -1934 2028 0
-2028 -2027 -1966 0
2028 2027 -1966 0
-2028 2027 1966 0
2028 -2027 1966 0
-2029 0
2030 0
-2031 0
2032 0
2033 0
2034 0
-2035 0
-2036 0
2037 0
-2038 0
2039 0
-2040 0
2041 0
2042 0
2043 0
2044 0
2045 0
2046 0
2047 0
2048 0
-2049 0
-2050 0
2051 0
-2052 0
2053 0
-2054 0
2055 0
-2056 0
-2057 0
2058 0
-2059 0
2060 0
-577 -2029 -2061 0
577 2029 -2061 0
-577 2029 2061 0
577 -2029 2061 0
-577 -2029 2093 0
577 -2093 0
2029 -2093 0
-578 -2030 -2094 0
578 2030 -2094 0
-578 2030 2094 0
578 -2030 2094 0
-2094 -2093 -2062 0
2094 2093 -2062 0
-2094 2093 2062 0
2094 -2093 2062 0
-578 -2030 2095 0
-578 -2093 2095 0
-2030 -2093 2095 0
578 2030 -2095 0
578 2093 -2095 0
2030 2093 -2095 0
-579 -2031 -2096 0
579 2031 -2096 0
-579 2031 2096 0
579 -2031 2096 0
-2096 -2095 -2063 0
2096 2095 -2063 0
-2096 2095 2063 0
2096 -2095 2063 0
-579 -2031 2097 0
-579 -2095 2097 0
-2031 -2095 2097 0
579 2031 -2097 0
579 2095 -2097 0
2031 2095 -2097 0
-580 -2032 -2098 0
580 2032 -2098 0
-580 2032 2098 0
580 -2032 2098 0
-2098 -2097 -2064 0
2098 2097 -2064 0
-2098 2097 2064 0
2098 -2097 2064 0
-580 -2032 2099 0
-580 -2097 2099 0
-2032 -2097 2099 0
580 2032 -2099 0
580 2097 -2099 0
2032 2097 -2099 0
-581 -2033 -2100 0
581 2033 -2100 0
-581 2033 2100 0
581 -2033 2100 0
-2100 -2099 -2065 0
2100 2099 -2065 0
-2100 2099 2065 0
2100 -2099 2065 0
-581 -2033 2101 0
-581 -2099 2101 0
-2033 -2099 2101 0
581 2033 -2101 0
581 2099 -2101 0
2033 2099 -2101 0
-582 -2034 -2102 0
582 2034 -2102 0
-582 2034 2102 0
582 -2034 2102 0
-2102 -2101 -2066 0
2102 2101 -2066 0
-2102 2101 2066 0
2102 -2101 2066 0
-582 -2034 2103 0
-582 -2101 2103 0
-2034 -2101 2103 0
582 2034 -2103 0
582 2101 -2103 0
2034 2101 -2103 0
-583 -2035 -2104 0
583 2035 -2104 0
-583 2035 2104 0
583 -2035 2104 0
-2104 -2103 -2067 0
2104 2103 -2067 0
-2104 2103 2067 0
2104 -2103 2067 0
-583 -2035 2105 0
-583 -2103 2105 0
-2035 -2103 2105 0
583 2035 -2105 0
583 2103 -2105 0
2035 2103 -2105 0
-584 -2036 -2106 0
584 2036 -2106 0
-584 2036 2106 0
584 -2036 2106 0
-2106 -2105 -2068 0
2106 2105 -2068 0
-2106 2105 2068 0
2106 -2105 2068 0
-584 -2036 2107 0
-584 -2105 2107 0
-2036 -2105 2107 0
584 2036 -2107 0
584 2105 -2107 0
2036 2105 -2107 0
-585 -2037 -2108 0
585 2037 -2108 0
-585 2037 2108 0
585 -2037 2108 0
-2108 -2107 -2069 0
2108 2107 -2069 0
-2108 2107 2069 0
2108 -2107 2069 0
-585 -2037 2109 0
-585 -2107 2109 0
-2037 -2107 2109 0
585 2037 -2109 0
585 2107 -2109 0
2037 2107 -2109 0
-586 -2038 -2110 0
586 2038 -2110 0
-586 2038 2110 0
586 -2038 2110 0
-2110 -2109 -2070 0
2110 2109 -2070 0
-2110 2109 2070 0
2110 -2109 2070 0
-586 -2038 2111 0
-586 -2109 2111 0
-2038 -2109 2111 0
586 2038 -2111 0
586 2109 -2111 0
2038 2109 -2111 0
-587 -2039 -2112 0
587 2039 -2112 0
-587 2039 2112 0
587 -2039 2112 0
-2112 -2111 -2071 0
2112 2111 -2071 0
-2112 2111 2071 0
2112 -2111 2071 0
-587 -2039 2113 0
-587 -2111 2113 0
-2039 -2111 2113 0
587 2039 -2113 0
587 2111 -2113 0
2039 2111 -2113 0
-588 -2040 -2114 0
588 2040 -2114 0
-588 2040 2114 0
588 -2040 2114 0
-2114 -2113 -2072 0
2114 2113 -2072 0
-2114 2113 2072 0
2114 -2113 2072 0
-588 -2040 2115 0
-588 -2113 2115 0
-2040 -2113 2115 0
588 2040 -2115 0
588 2113 -2115 0
2040 2113 -2115 0
-589 -2041 -2116 0
589 2041 -2116 0
-589 2041 2116 0
589 -2041 2116 0
-2116 -2115 -2073 0
2116 2115 -2073 0
-2116 2115 2073 0
2116 -2115 2073 0
-589 -2041 2117 0
-589 -2115 2117 0
-2041 -2115 2117 0
589 2041 -2117 0
589 2115 -2117 0
2041 2115 -2117 0
-590 -2042 -2118 0
590 2042 -2118 0
-590 2042 2118 0
590 -2042 2118 0
-2118 -2117 -2074 0
2118 2117 -2074 0
-2118 2117 2074 0
2118 -2117 2074 0
-590 -2042 2119 0
-590 -2117 2119 0
-2042 -2117 2119 0
590 2042 -2119 0
590 2117 -2119 0
2042 2117 -2119 0
-591 -2043 -2120 0
591 2043 -2120 0
-591 2043 2120 0
591 -2043 2120 0
-2120 -2119 -2075 0
2120 2119 -2075 0
-2120 2119 2075 0
2120 -2119 2075 0
-591 -2043 2121 0
-591 -2119 2121 0
-2043 -2119 2121 0
591 2043 -2121 0
591 2119 -2121 0
2043 2119 -2121 0
-592 -2044 -2122 0
592 2044 -2122 0
-592 2044 2122 0
592 -2044 2122 0
-2122 -2121 -2076 0
2122 2121 -2076 0
-2122 2121 2076 0
2122 -2121 2076 0
-592 -2044 2123 0
-592 -2121 2123 0
-2044 -2121 2123 0
592 2044 -2123 0
592 2121 -2123 0
2044 2121 -2123 0
-593 -2045 -2124 0
593 2045 -2124 0
-593 2045 2124 0
593 -2045 2124 0
-2124 -2123 -2077 0
2124 2123 -2077 0
-2124 2123 2077 0
2124 -2123 2077 0
-593 -2045 2125 0
-593 -2123 2125 0
-2045 -2123 2125 0
593 2045 -2125 0
593 2123 -2125 0
2045 2123 -2125 0
-594 -2046 -2126 0
594 2046 -2126 0
-594 2046 2126 0
594 -2046 2126 0
-2126 -2125 -2078 0
2126 2125 -2078 0
-2126 2125 2078 0
2126 -2125 2078 0
-594 -2046 2127 0
-594 -2125 2127 0
-2046 -2125 2127 0
594 2046 -2127 0
594 2125 -2127 0
2046 2125 -2127 0
-595 -2047 -2128 0
595 2047 -2128 0
-595 2047 2128 0
595 -2047 2128 0
-2128 -2127 -2079 0
2128 2127 -2079 0
-2128 2127 2079 0
2128 -2127 2079 0
-595 -2047 2129 0
-595 -2127 2129 0
-2047 -2127 2129 0
595 2047 -2129 0
595 2127 -2129 0
2047 2127 -2129 0
-596 -2048 -2130 0
596 2048 -2130 0
-596 2048 2130 0
596 -2048 2130 0
-2130 -2129 -2080 0
2130 2129 -2080 0
-2130 2129 2080 0
2130 -2129 2080 0
-596 -2048 2131 0
-596 -2129 2131 0
-2048 -2129 2131 0
596 2048 -2131 0
596 2129 -2131 0
2048 2129 -2131 0
-597 -2049 -2132 0
597 2049 -2132 0
-597 2049 2132 0
597 -2049 2132 0
-2132 -2131 -2081 0
2132 2131 -2081 0
-2132 2131 2081 0
2132 -2131 2081 0
-597 -2049 2133 0
-597 -2131 2133 0
-2049 -2131 2133 0
597 2049 -2133 0
597 2131 -2133 0
2049 2131 -2133 0
-598 -2050 -2134 0
598 2050 -2134 0
-598 2050 2134 0
598 -2050 2134 0
-2134 -2133 -2082 0
2134 2133 -2082 0
-2134 2133 2082 0
2134 -2133 2082 0
-598 -2050 2135 0
-598 -2133 2135 0
-2050 -2133 2135 0
598 2050 -2135 0
598 2133 -2135 0
2050 2133 -2135 0
-599 -2051 -2136 0
599 2051 -2136 0
-599 2051 2136 0
599 -2051 2136 0
-2136 -2135 -2083 0
2136 2135 -2083 0
-2136 2135 2083 0
2136 -2135 2083 0
-599 -2051 2137 0
-599 -2135 2137 0
-2051 -2135 2137 0
599 2051 -2137 0
599 2135 -2137 0
2051 2135 -2137 0
-600 -2052 -2138 0
600 2052 -2138 0
-600 2052 2138 0
600 -2052 2138 0
-2138 -2137 -2084 0
2138 2137 -2084 0
-2138 2137 2084 0
2138 -2137 2084 0
-600 -2052 2139 0
-600 -2137 2139 0
-2052 -2137 2139 0
600 2052 -2139 0
600 2137 -2139 0
2052 2137 -2139 0
-601 -2053 -2140 0
601 2053 -2140 0
-601 2053 2140 0
601 -2053 2140 0
-2140 -2139 -2085 0
2140 2139 -2085 0
-2140 2139 2085 0
2140 -2139 2085 0
-601 -2053 2141 0
-601 -2139 2141 0
-2053 -2139 2141 0
601 2053 -2141 0
601 2139 -2141 0
2053 2139 -2141 0
-602 -2054 -2142 0
602 2054 -2142 0
-602 2054 2142 0
602 -2054 2142 0
-2142 -2141 -2086 0
2142 2141 -2086 0
-2142 2141 2086 0
2142 -2141 2086 0
-602 -2054 2143 0
-602 -2141 2143 0
-2054 -2141 2143 0
602 2054 -2143 0
602 2141 -2143 0
2054 2141 -2143 0
-603 -2055 -2144 0
603 2055 -2144 0
-603 2055 2144 0
603 -2055 2144 0
-2144 -2143 -2087 0
2144 2143 -2087 0
-2144 2143 2087 0
2144 -2143 2087 0
-603 -2055 2145 0
-603 -2143 2145 0
-2055 -2143 2145 0
603 2055 -2145 0
603 2143 -2145 0
2055 2143 -2145 0
-604 -2056 -2146 0
604 2056 -2146 0
-604 2056 2146 0
604 -2056 2146 0
-2146 -2145 -2088 0
2146 2145 -2088 0
-2146 2145 2088 0
2146 -2145 2088 0
-604 -2056 2147 0
-604 -2145 2147 0
-2056 -2145 2147 0
604 2056 -2147 0
604 2145 -2147 0
2056 2145 -2147 0
-605 -2057 -2148 0
605 2057 -2148 0
-605 2057 2148 0
605 -2057 2148 0
-2148 -2147 -2089 0
2148 2147 -2089 0
-2148 2147 2089 0
2148 -2147 2089 0
-605 -2057 2149 0
-605 -2147 2149 0
-2057 -2147 2149 0
605 2057 -2149 0
605 2147 -2149 0
2057 2147 -2149 0
-606 -2058 -2150 0
606 2058 -2150 0
-606 2058 2150 0
606 -2058 2150 0
-2150 -2149 -2090 0
2150 2149 -2090 0
-2150 2149 2090 0
2150 -2149 2090 0
-606 -2058 2151 0
-606 -2149 2151 0
-2058 -2149 2151 0
606 2058 -2151 0
606 2149 -2151 0
2058 2149 -2151 0
-607 -2059 -2152 0
607 2059 -2152 0
-607 2059 2152 0
607 -2059 2152 0
-2152 -2151 -2091 0
2152 2151 -2091 0
-2152 2151 2091 0
2152 -2151 2091 0
-607 -2059 2153 0
-607 -2151 2153 0
-2059 -2151 2153 0
607 2059 -2153 0
607 2151 -2153 0
2059 2151 -2153 0
-608 -2060 -2154 0
608 2060 -2154 0
-608 2060 2154 0
608 -2060 2154 0
-2154 -2153 -2092 0
2154 2153 -2092 0
-2154 2153 2092 0
2154 -2153 2092 0
2155 0
2156 0
2157 0
2158 0
2159 0
2160 0
2161 0
-2162 0
-2163 0
2164 0
-2165 0
-2166 0
2167 0
-2168 0
2169 0
-2170 0
-2171 0
2172 0
2173 0
2174 0
-2175 0
-2176 0
-2177 0
-2178 0
2179 0
-2180 0
-2181 0
-2182 0
2183 0
-2184 0
2185 0
-2186 0
-1463 -2155 -2187 0
1463 2155 -2187 0
-1463 2155 2187 0
1463 -2155 2187 0
-1463 -2155 2219 0
1463 -2219 0
2155 -2219 0
-1464 -2156 -2220 0
1464 2156 -2220 0
-1464 2156 2220 0
1464 -2156 2220 0
-2220 -2219 -2188 0
2220 2219 -2188 0
-2220 2219 2188 0
2220 -2219 2188 0
-1464 -2156 2221 0
-1464 -2219 2221 0
-2156 -2219 2221 0
1464 2156 -2221 0
1464 2219 -2221 0
2156 2219 -2221 0
-1465 -2157 -2222 0
1465 2157 -2222 0
-1465 2157 2222 0
1465 -2157 2222 0
-2222 -2221 -2189 0
2222 2221 -2189 0
-2222 2221 2189 0
2222 -2221 2189 0
-1465 -2157 2223 0
-1465 -2221 2223 0
-2157 -2221 2223 0
1465 2157 -2223 0
1465 2221 -2223 0
2157 2221 -2223 0
-1466 -2158 -2224 0
1466 2158 -2224 0
-1466 2158 2224 0
1466 -2158 2224 0
-2224 -2223 -2190 0
2224 2223 -2190 0
-2224 2223 2190 0
2224 -2223 2190 0
-1466 -2158 2225 0
-1466 -2223 2225 0
-2158 -2223 2225 0
1466 2158 -2225 0
1466 2223 -2225 0
2158 2223 -2225 0
-1467 -2159 -2226 0
1467 2159 -2226 0
-1467 2159 2226 0
1467 -2159 2226 0
-2226 -2225 -2191 0
2226 2225 -2191 0
-2226 2225 2191 0
2226 -2225 2191 0
-1467 -2159 2227 0
-1467 -2225 2227 0
-2159 -2225 2227 0
1467 2159 -2227 0
1467 2225 -2227 0
2159 2225 -2227 0
-1468 -2160 -2228 0
1468 2160 -2228 0
-1468 2160 2228 0
1468 -2160 2228 0
-2228 -2227 -2192 0
2228 2227 -2192 0
-2228 2227 2192 0
2228 -2227 2192 0
-1468 -2160 2229 0
-1468 -2227 2229 0
-2160 -2227 2229 0
1468 2160 -2229 0
1468 2227 -2229 0
2160 2227 -2229 0
-1469 -2161 -2230 0
1469 2161 -2230 0
-1469 2161 2230 0
1469 -2161 2230 0
-2230 -2229 -2193 0
2230 2229 -2193 0
-2230 2229 2193 0
2230 -2229 2193 0
-1469 -2161 2231 0
-1469 -2229 2231 0
-2161 -2229 2231 0
1469 2161 -2231 0
1469 2229 -2231 0
2161 2229 -2231 0
-1470 -2162 -2232 0
1470 2162 -2232 0
-1470 2162 2232 0
1470 -2162 2232 0
-2232 -2231 -2194 0
2232 2231 -2194 0
-2232 2231 2194 0
2232 -2231 2194 0
-1470 -2162 2233 0
-1470 -2231 2233 0
-2162 -2231 2233 0
1470 2162 -2233 0
1470 2231 -2233 0
2162 2231 -2233 0
-1471 -2163 -2234 0
1471 2163 -2234 0
-1471 2163 2234 0
1471 -2163 2234 0
-2234 -2233 -2195 0
2234 2233 -2195 0
-2234 2233 2195 0
2234 -2233 2195 0
-1471 -2163 2235 0
-1471 -2233 2235 0
-2163 -2233 2235 0
1471 2163 -2235 0
1471 2233 -2235 0
2163 2233 -2235 0
-1472 -2164 -2236 0
1472 2164 -2236 0
-1472 2164 2236 0
1472 -2164 2236 0
-2236 -2235 -2196 0
2236 2235 -2196 0
-2236 2235 2196 0
2236 -2235 2196 0
-1472 -2164 2237 0
-1472 -2235 2237 0
-2164 -2235 2237 0
1472 2164 -2237 0
1472 2235 -2237 0
2164 2235 -2237 0
-1473 -2165 -2238 0
1473 2165 -2238 0
-1473 2165 2238 0
1473 -2165 2238 0
-2238 -2237 -2197 0
2238 2237 -2197 0
-2238 2237 2197 0
2238 -2237 2197 0
-1473 -2165 2239 0
-1473 -2237 2239 0
-2165 -2237 2239 0
1473 2165 -2239 0
1473 2237 -2239 0
2165 2237 -2239 0
-1474 -2166 -2240 0
1474 2166 -2240 0
-1474 2166 2240 0
1474 -2166 2240 0
-2240 -2239 -2198 0
2240 2239 -2198 0
-2240 2239 2198 0
2240 -2239 2198 0
-1474 -2166 2241 0
-1474 -2239 2241 0
-2166 -2239 2241 0
1474 2166 -2241 0
1474 2239 -2241 0
2166 2239 -2241 0
-1475 -2167 -2242 0
1475 2167 -2242 0
-1475 2167 2242 0
1475 -2167 2242 0
-2242 -2241 -2199 0
2242 2241 -2199 0
-2242 2241 2199 0
2242 -2241 2199 0
-1475 -2167 2243 0
-1475 -2241 2243 0
-2167 -2241 2243 0
1475 2167 -2243 0
1475 2241 -2243 0
2167 2241 -2243 0
-1476 -2168 -2244 0
1476 2168 -2244 0
-1476 2168 2244 0
1476 -2168 2244 0
-2244 -2243 -2200 0
2244 2243 -2200 0
-2244 2243 2200 0
2244 -2243 2200 0
-1476 -2168 2245 0
-1476 -2243 2245 0
-2168 -2243 2245 0
1476 2168 -2245 0
1476 2243 -2245 0
2168 2243 -2245 0
-1477 -2169 -2246 0
1477 2169 -2246 0
-1477 2169 2246 0
1477 -2169 2246 0
-2246 -2245 -2201 0
2246 2245 -2201 0
-2246 2245 2201 0
2246 -2245 2201 0
-1477 -2169 2247 0
-1477 -2245 2247 0
-2169 -2245 2247 0
1477 2169 -2247 0
1477 2245 -2247 0
2169 2245 -2247 0
-1478 -2170 -2248 0
1478 2170 -2248 0
-1478 2170 2248 0
1478 -2170 2248 0
-2248 -2247 -2202 0
2248 2247 -2202 0
-2248 2247 2202 0
2248 -2247 2202 0
-1478 -2170 2249 0
-1478 -2247 2249 0
-2170 -2247 2249 0
1478 2170 -2249 0
1478 2247 -2249 0
2170 2247 -2249 0
-1479 -2171 -2250 0
1479 2171 -2250 0
-1479 2171 2250 0
1479 -2171 2250 0
-2250 -2249 -2203 0
2250 2249 -2203 0
-2250 2249 2203 0
2250 -2249 2203 0
-1479 -2171 2251 0
-1479 -2249 2251 0
-2171 -2249 2251 0
1479 2171 -2251 0
1479 2249 -2251 0
2171 2249 -2251 0
-1480 -2172 -2252 0
1480 2172 -2252 0
-1480 2172 2252 0
1480 -2172 2252 0
-2252 -2251 -2204 0
2252 2251 -2204 0
-2252 2251 2204 0
2252 -2251 2204 0
-1480 -2172 2253 0
-1480 -2251 2253 0
-2172 -2251 2253 0
1480 2172 -2253 0
1480 2251 -2253 0
2172 2251 -2253 0
-1481 -2173 -2254 0
1481 2173 -2254 0
-1481 2173 2254 0
1481 -2173 2254 0
-2254 -2253 -2205 0
2254 2253 -2205 0
-2254 2253 2205 0
2254 -2253 2205 0
-1481 -2173 2255 0
-1481 -2253 2255 0
-2173 -2253 2255 0
1481 2173 -2255 0
1481 2253 -2255 0
2173 2253 -2255 0
-1482 -2174 -2256 0
1482 2174 -2256 0
-1482 2174 2256 0
1482 -2174 2256 0
-2256 -2255 -2206 0
2256 2255 -2206 0
-2256 2255 2206 0
2256 -2255 2206 0
-1482 -2174 2257 0
-1482 -2255 2257 0
-2174 -2255 2257 0
1482 2174 -2257 0
1482 2255 -2257 0
2174 2255 -2257 0
-1483 -2175 -2258 0
1483 2175 -2258 0
-1483 2175 2258 0
1483 -2175 2258 0
-2258 -2257 -2207 0
2258 2257 -2207 0
-2258 2257 2207 0
2258 -2257 2207 0
-1483 -2175 2259 0
-1483 -2257 2259 0
-2175 -2257 2259 0
1483 2175 -2259 0
1483 2257 -2259 0
2175 2257 -2259 0
-1484 -2176 -2260 0
1484 2176 -2260 0
-1484 2176 2260 0
1484 -2176 2260 0
-2260 -2259 -2208 0
2260 2259 -2208 0
-2260 2259 2208 0
2260 -2259 2208 0
-1484 -2176 2261 0
-1484 -2259 2261 0
-2176 -2259 2261 0
1484 2176 -2261 0
1484 2259 -2261 0
2176 2259 -2261 0
-1485 -2177 -2262 0
1485 2177 -2262 0
-1485 2177 2262 0
1485 -2177 2262 0
-2262 -2261 -2209 0
2262 2261 -2209 0
-2262 2261 2209 0
2262 -2261 2209 0
-1485 -2177 2263 0
-1485 -2261 2263 0
-2177 -2261 2263 0
1485 2177 -2263 0
1485 2261 -2263 0
2177 2261 -2263 0
-1486 -2178 -2264 0
1486 2178 -2264 0
-1486 2178 2264 0
1486 -2178 2264 0
-2264 -2263 -2210 0
2264 2263 -2210 0
-2264 2263 2210 0
2264 -2263 2210 0
-1486 -2178 2265 0
-1486 -2263 2265 0
-2178 -2263 2265 0
1486 2178 -2265 0
1486 2263 -2265 0
2178 2263 -2265 0
-1487 -2179 -2266 0
1487 2179 -2266 0
-1487 2179 2266 0
1487 -2179 2266 0
-2266 -2265 -2211 0
2266 2265 -2211 0
-2266 2265 2211 0
2266 -2265 2211 0
-1487 -2179 2267 0
-1487 -2265 2267 0
-2179 -2265 2267 0
1487 2179 -2267 0
1487 2265 -2267 0
2179 2265 -2267 0
-1488 -2180 -2268 0
1488 2180 -2268 0
-1488 2180 2268 0
1488 -2180 2268 0
-2268 -2267 -2212 0
2268 2267 -2212 0
-2268 2267 2212 0
2268 -2267 2212 0
-1488 -2180 2269 0
-1488 -2267 2269 0
-2180 -2267 2269 0
1488 2180 -2269 0
1488 2267 -2269 0
2180 2267 -2269 0
-1489 -2181 -2270 0
1489 2181 -2270 0
-1489 2181 2270 0
1489 -2181 2270 0
-2270 -2269 -2213 0
2270 2269 -2213 0
-2270 2269 2213 0
2270 -2269 2213 0
-1489 -2181 2271 0
-1489 -2269 2271 0
-2181 -2269 2271 0
1489 2181 -2271 0
1489 2269 -2271 0
2181 2269 -2271 0
-1490 -2182 -2272 0
1490 2182 -2272 0
-1490 2182 2272 0
1490 -2182 2272 0
-2272 -2271 -2214 0
2272 2271 -2214 0
-2272 2271 2214 0
2272 -2271 2214 0
-1490 -2182 2273 0
-1490 -2271 2273 0
-2182 -2271 2273 0
1490 2182 -2273 0
1490 2271 -2273 0
2182 2271 -2273 0
-1491 -2183 -2274 0
1491 2183 -2274 0
-1491 2183 2274 0
1491 -2183 2274 0
-2274 -2273 -2215 0
2274 2273 -2215 0
-2274 2273 2215 0
2274 -2273 2215 0
-1491 -2183 2275 0
-1491 -2273 2275 0
-2183 -2273 2275 0
1491 2183 -2275 0
1491 2273 -2275 0
2183 2273 -2275 0
-1492 -2184 -2276 0
1492 2184 -2276 0
-1492 2184 2276 0
1492 -2184 2276 0
-2276 -2275 -2216 0
2276 2275 -2216 0
-2276 2275 2216 0
2276 -2275 2216 0
-1492 -2184 2277 0
-1492 -2275 2277 0
-2184 -2275 2277 0
1492 2184 -2277 0
1492 2275 -2277 0
2184 2275 -2277 0
-1493 -2185 -2278 0
1493 2185 -2278 0
-1493 2185 2278 0
1493 -2185 2278 0
-2278 -2277 -2217 0
2278 2277 -2217 0
-2278 2277 2217 0
2278 -2277 2217 0
-1493 -2185 2279 0
-1493 -2277 2279 0
-2185 -2277 2279 0
1493 2185 -2279 0
1493 2277 -2279 0
2185 2277 -2279 0
-1494 -2186 -2280 0
1494 2186 -2280 0
-1494 2186 2280 0
1494 -2186 2280 0
-2280 -2279 -2218 0
2280 2279 -2218 0
-2280 2279 2218 0
2280 -2279 2218 0
-2281 0
-2282 0
2283 0
2284 0
-2285 0
-2286 0
-2287 0
2288 0
-2289 0
-2290 0
-2291 0
2292 0
-2293 0
2294 0
2295 0
-2296 0
2297 0
-2298 0
2299 0
-2300 0
-2301 0
-2302 0
-2303 0
-2304 0
2305 0
2306 0
-2307 0
2308 0
2309 0
-2310 0
-2311 0
2312 0
-641 -2281 -2313 0
641 2281 -2313 0
-641 2281 2313 0
641 -2281 2313 0
-641 -2281 2345 0
641 -2345 0
2281 -2345 0
-642 -2282 -2346 0
642 2282 -2346 0
-642 2282 2346 0
642 -2282 2346 0
-2346 -2345 -2314 0
2346 2345 -2314 0
-2346 2345 2314 0
2346 -2345 2314 0
-642 -2282 2347 0
-642 -2345 2347 0
-2282 -2345 2347 0
642 2282 -2347 0
642 2345 -2347 0
2282 2345 -2347 0
-643 -2283 -2348 0
643 2283 -2348 0
-643 2283 2348 0
643 -2283 2348 0
-2348 -2347 -2315 0
2348 2347 -2315 0
-2348 2347 2315 0
2348 -2347 2315 0
-643 -2283 2349 0
-643 -2347 2349 0
-2283 -2347 2349 0
643 2283 -2349 0
643 2347 -2349 0
2283 2347 -2349 0
-644 -2284 -2350 0
644 2284 -2350 0
-644 2284 2350 0
644 -2284 2350 0
-2350 -2349 -2316 0
2350 2349 -2316 0
-2350 2349 2316 0
2350 -2349 2316 0
-644 -2284 2351 0
-644 -2349 2351 0
-2284 -2349 2351 0
644 2284 -2351 0
644 2349 -2351 0
2284 2349 -2351 0
-645 -2285 -2352 0
645 2285 -2352 0
-645 2285 2352 0
645 -2285 2352 0
-2352 -2351 -2317 0
2352 2351 -2317 0
-2352 2351 2317 0
2352 -2351 2317 0
-645 -2285 2353 0
-645 -2351 2353 0
-2285 -2351 2353 0
645 2285 -2353 0
645 2351 -2353 0
2285 2351 -2353 0
-646 -2286 -2354 0
646 2286 -2354 0
-646 2286 2354 0
646 -2286 2354 0
-2354 -2353 -2318 0
2354 2353 -2318 0
-2354 2353 2318 0
2354 -2353 2318 0
-646 -2286 2355 0
-646 -2353 2355 0
-2286 -2353 2355 0
646 2286 -2355 0
646 2353 -2355 0
2286 2353 -2355 0
-647 -2287 -2356 0
647 2287 -2356 0
-647 2287 2356 0
647 -2287 2356 0
-2356 -2355 -2319 0
2356 2355 -2319 0
-2356 2355 2319 0
2356 -2355 2319 0
-647 -2287 2357 0
-647 -2355 2357 0
-2287 -2355 2357 0
647 2287 -2357 0
647 2355 -2357 0
2287 2355 -2357 0
-648 -2288 -2358 0
648 2288 -2358 0
-648 2288 2358 0
648 -2288 2358 0
-2358 -2357 -2320 0
2358 2357 -2320 0
-2358 2357 2320 0
2358 -2357 2320 0
-648 -2288 2359 0
-648 -2357 2359 0
-2288 -2357 2359 0
648 2288 -2359 0
648 2357 -2359 0
2288 2357 -2359 0
-649 -2289 -2360 0
649 2289 -2360 0
-649 2289 2360 0
649 -2289 2360 0
-2360 -2359 -2321 0
2360 2359 -2321 0
-2360 2359 2321 0
2360 -2359 2321 0
-649 -2289 2361 0
-649 -2359 2361 0
-2289 -2359 2361 0
649 2289 -2361 0
649 2359 -2361 0
2289 2359 -2361 0
-650 -2290 -2362 0
650 2290 -2362 0
-650 2290 2362 0
650 -2290 2362 0
-2362 -2361 -2322 0
2362 2361 -2322 0
-2362 2361 2322 0
2362 -2361 2322 0
-650 -2290 2363 0
-650 -2361 2363 0
-2290 -2361 2363 0
650 2290 -2363 0
650 2361 -2363 0
2290 2361 -2363 0
-651 -2291 -2364 0
651 2291 -2364 0
-651 2291 2364 0
651 -2291 2364 0
-2364 -2363 -2323 0
2364 2363 -2323 0
-2364 2363 2323 0
2364 -2363 2323 0
-651 -2291 2365 0
-651 -2363 2365 0
-2291 -2363 2365 0
651 2291 -2365 0
651 2363 -2365 0
2291 2363 -2365 0
-652 -2292 -2366 0
652 2292 -2366 0
-652 2292 2366 0
652 -2292 2366 0
-2366 -2365 -2324 0
2366 2365 -2324 0
-2366 2365 2324 0
2366 -2365 2324 0
-652 -2292 2367 0
-652 -2365 2367 0
-2292 -2365 2367 0
652 2292 -2367 0
652 2365 -2367 0
2292 2365 -2367 0
-653 -2293 -2368 0
653 2293 -2368 0
-653 2293 2368 0
653 -2293 2368 0
-2368 -2367 -2325 0
2368 2367 -2325 0
-2368 2367 2325 0
2368 -2367 2325 0
-653 -2293 2369 0
-653 -2367 2369 0
-2293 -2367 2369 0
653 2293 -2369 0
653 2367 -2369 0
2293 2367 -2369 0
-654 -2294 -2370 0
654 2294 -2370 0
-654 2294 2370 0
654 -2294 2370 0
-2370 -2369 -2326 0
2370 2369 -2326 0
-2370 2369 2326 0
2370 -2369 2326 0
-654 -2294 2371 0
-654 -2369 2371 0
-2294 -2369 2371 0
654 2294 -2371 0
654 2369 -2371 0
2294 2369 -2371 0
-655 -2295 -2372 0
655 2295 -2372 0
-655 2295 2372 0
655 -2295 2372 0
-2372 -2371 -2327 0
2372 2371 -2327 0
-2372 2371 2327 0
2372 -2371 2327 0
-655 -2295 2373 0
-655 -2371 2373 0
-2295 -2371 2373 0
655 2295 -2373 0
655 2371 -2373 0
2295 2371 -2373 0
-656 -2296 -2374 0
656 2296 -2374 0
-656 2296 2374 0
656 -2296 2374 0
-2374 -2373 -2328 0
2374 2373 -2328 0
-2374 2373 2328 0
2374 -2373 2328 0
-656 -2296 2375 0
-656 -2373 2375 0
-2296 -2373 2375 0
656 2296 -2375 0
656 2373 -2375 0
2296 2373 -2375 0
-657 -2297 -2376 0
657 2297 -2376 0
-657 2297 2376 0
657 -2297 2376 0
-2376 -2375 -2329 0
2376 2375 -2329 0
-2376 2375 2329 0
2376 -2375 2329 0
-657 -2297 2377 0
-657 -2375 2377 0
-2297 -2375 2377 0
657 2297 -2377 0
657 2375 -2377 0
2297 2375 -2377 0
-658 -2298 -2378 0
658 2298 -2378 0
-658 2298 2378 0
658 -2298 2378 0
-2378 -2377 -2330 0
2378 2377 -2330 0
-2378 2377 2330 0
2378 -2377 2330 0
-658 -2298 2379 0
-658 -2377 2379 0
-2298 -2377 2379 0
658 2298 -2379 0
658 2377 -2379 0
2298 2377 -2379 0
-659 -2299 -2380 0
659 2299 -2380 0
-659 2299 2380 0
659 -2299 2380 0
-2380 -2379 -2331 0
2380 2379 -2331 0
-2380 2379 2331 0
2380 -2379 2331 0
-659 -2299 2381 0
-659 -2379 2381 0
-2299 -2379 2381 0
659 2299 -2381 0
659 2379 -2381 0
2299 2379 -2381 0
-660 -2300 -2382 0
660 2300 -2382 0
-660 2300 2382 0
660 -2300 2382 0
-2382 -2381 -2332 0
2382 2381 -2332 0
-2382 2381 2332 0
2382 -2381 2332 0
-660 -2300 2383 0
-660 -2381 2383 0
-2300 -2381 2383 0
660 2300 -2383 0
660 2381 -2383 0
2300 2381 -2383 0
-661 -2301 -2384 0
661 2301 -2384 0
-661 2301 2384 0
661 -2301 2384 0
-2384 -2383 -2333 0
2384 2383 -2333 0
-2384 2383 2333 0
2384 -2383 2333 0
-661 -2301 2385 0
-661 -2383 2385 0
-2301 -2383 2385 0
661 2301 -2385 0
661 2383 -2385 0
2301 2383 -2385 0
-662 -2302 -2386 0
662 2302 -2386 0
-662 2302 2386 0
662 -2302 2386 0
-2386 -2385 -2334 0
2386 2385 -2334 0
-2386 2385 2334 0
2386 -2385 2334 0
-662 -2302 2387 0
-662 -2385 2387 0
-2302 -2385 2387 0
662 2302 -2387 0
662 2385 -2387 0
2302 2385 -2387 0
-663 -2303 -2388 0
663 2303 -2388 0
-663 2303 2388 0
663 -2303 2388 0
-2388 -2387 -2335 0
2388 2387 -2335 0
-2388 2387 2335 0
2388 -2387 2335 0
-663 -2303 2389 0
-663 -2387 2389 0
-2303 -2387 2389 0
663 2303 -2389 0
663 2387 -2389 0
2303 2387 -2389 0
-664 -2304 -2390 0
664 2304 -2390 0
-664 2304 2390 0
664 -2304 2390 0
-2390 -2389 -2336 0
2390 2389 -2336 0
-2390 2389 2336 0
2390 -2389 2336 0
-664 -2304 2391 0
-664 -2389 2391 0
-2304 -2389 2391 0
664 2304 -2391 0
664 2389 -2391 0
2304 2389 -2391 0
-665 -2305 -2392 0
665 2305 -2392 0
-665 2305 2392 0
665 -2305 2392 0
-2392 -2391 -2337 0
2392 2391 -2337 0
-2392 2391 2337 0
2392 -2391 2337 0
-665 -2305 2393 0
-665 -2391 2393 0
-2305 -2391 2393 0
665 2305 -2393 0
665 2391 -2393 0
2305 2391 -2393 0
-666 -2306 -2394 0
666 2306 -2394 0
-666 2306 2394 0
666 -2306 2394 0
-2394 -2393 -2338 0
2394 2393 -2338 0
-2394 2393 2338 0
2394 -2393 2338 0
-666 -2306 2395 0
-666 -2393 2395 0
-2306 -2393 2395 0
666 2306 -2395 0
666 2393 -2395 0
2306 2393 -2395 0
-667 -2307 -2396 0
667 2307 -2396 0
-667 2307 2396 0
667 -2307 2396 0
-2396 -2395 -2339 0
2396 2395 -2339 0
-2396 2395 2339 0
2396 -2395 2339 0
-667 -2307 2397 0
-667 -2395 2397 0
-2307 -2395 2397 0
667 2307 -2397 0
667 2395 -2397 0
2307 2395 -2397 0
-668 -2308 -2398 0
668 2308 -2398 0
-668 2308 2398 0
668 -2308 2398 0
-2398 -2397 -2340 0
2398 2397 -2340 0
-2398 2397 2340 0
2398 -2397 2340 0
-668 -2308 2399 0
-668 -2397 2399 0
-2308 -2397 2399 0
668 2308 -2399 0
668 2397 -2399 0
2308 2397 -2399 0
-669 -2309 -2400 0
669 2309 -2400 0
-669 2309 2400 0
669 -2309 2400 0
-2400 -2399 -2341 0
2400 2399 -2341 0
-2400 2399 2341 0
2400 -2399 2341 0
-669 -2309 2401 0
-669 -2399 2401 0
-2309 -2399 2401 0
669 2309 -2401 0
669 2399 -2401 0
2309 2399 -2401 0
-670 -2310 -2402 0
670 2310 -2402 0
-670 2310 2402 0
670 -2310 2402 0
-2402 -2401 -2342 0
2402 2401 -2342 0
-2402 2401 2342 0
2402 -2401 2342 0
-670 -2310 2403 0
-670 -2401 2403 0
-2310 -2401 2403 0
670 2310 -2403 0
670 2401 -2403 0
2310 2401 -2403 0
-671 -2311 -2404 0
671 2311 -2404 0
-671 2311 2404 0
671 -2311 2404 0
-2404 -2403 -2343 0
2404 2403 -2343 0
-2404 2403 2343 0
2404 -2403 2343 0
-671 -2311 2405 0
-671 -2403 2405 0
-2311 -2403 2405 0
671 2311 -2405 0
671 2403 -2405 0
2311 2403 -2405 0
-672 -2312 -2406 0
672 2312 -2406 0
-672 2312 2406 0
672 -2312 2406 0
-2406 -2405 -2344 0
2406 2405 -2344 0
-2406 2405 2344 0
2406 -2405 2344 0
2407 0
2408 0
-2409 0
2410 0
-2411 0
2412 0
-2413 0
2414 0
2415 0
-2416 0
-2417 0
2418 0
2419 0
-2420 0
2421 0
2422 0
2423 0
2424 0
-2425 0
-2426 0
-2427 0
-2428 0
-2429 0
2430 0
2431 0
2432 0
2433 0
2434 0
2435 0
-2436 0
-2437 0
-2438 0
-673 -2407 -2439 0
673 2407 -2439 0
-673 2407 2439 0
673 -2407 2439 0
-673 -2407 2471 0
673 -2471 0
2407 -2471 0
-674 -2408 -2472 0
674 2408 -2472 0
-674 2408 2472 0
674 -2408 2472 0
-2472 -2471 -2440 0
2472 2471 -2440 0
-2472 2471 2440 0
2472 -2471 2440 0
-674 -2408 2473 0
-674 -2471 2473 0
-2408 -2471 2473 0
674 2408 -2473 0
674 2471 -2473 0
2408 2471 -2473 0
-675 -2409 -2474 0
675 2409 -2474 0
-675 2409 2474 0
675 -2409 2474 0
-2474 -2473 -2441 0
2474 2473 -2441 0
-2474 2473 2441 0
2474 -2473 2441 0
-675 -2409 2475 0
-675 -2473 2475 0
-2409 -2473 2475 0
675 2409 -2475 0
675 2473 -2475 0
2409 2473 -2475 0
-676 -2410 -2476 0
676 2410 -2476 0
-676 2410 2476 0
676 -2410 2476 0
-2476 -2475 -2442 0
2476 2475 -2442 0
-2476 2475 2442 0
2476 -2475 2442 0
-676 -2410 2477 0
-676 -2475 2477 0
-2410 -2475 2477 0
676 2410 -2477 0
676 2475 -2477 0
2410 2475 -2477 0
-677 -2411 -2478 0
677 2411 -2478 0
-677 2411 2478 0
677 -2411 2478 0
-2478 -2477 -2443 0
2478 2477 -2443 0
-2478 2477 2443 0
2478 -2477 2443 0
-677 -2411 2479 0
-677 -2477 2479 0
-2411 -2477 2479 0
677 2411 -2479 0
677 2477 -2479 0
2411 2477 -2479 0
-678 -2412 -2480 0
678 2412 -2480 0
-678 2412 2480 0
678 -2412 2480 0
-2480 -2479 -2444 0
2480 2479 -2444 0
-2480 2479 2444 0
2480 -2479 2444 0
-678 -2412 2481 0
-678 -2479 2481 0
-2412 -2479 2481 0
678 2412 -2481 0
678 2479 -2481 0
2412 2479 -2481 0
-679 -2413 -2482 0
679 2413 -2482 0
-679 2413 2482 0
679 -2413 2482 0
-2482 -2481 -2445 0
2482 2481 -2445 0
-2482 2481 2445 0
2482 -2481 2445 0
-679 -2413 2483 0
-679 -2481 2483 0
-2413 -2481 2483 0
679 2413 -2483 0
679 2481 -2483 0
2413 2481 -2483 0
-680 -2414 -2484 0
680 2414 -2484 0
-680 2414 2484 0
680 -2414 2484 0
-2484 -2483 -2446 0
2484 2483 -2446 0
-2484 2483 2446 0
2484 -2483 2446 0
-680 -2414 2485 0
-680 -2483 2485 0
-2414 -2483 2485 0
680 2414 -2485 0
680 2483 -2485 0
2414 2483 -2485 0
-681 -2415 -2486 0
681 2415 -2486 0
-681 2415 2486 0
681 -2415 2486 0
-2486 -2485 -2447 0
2486 2485 -2447 0
-2486 2485 2447 0
2486 -2485 2447 0
-681 -2415 2487 0
-681 -2485 2487 0
-2415 -2485 2487 0
681 2415 -2487 0
681 2485 -2487 0
2415 2485 -2487 0
-682 -2416 -2488 0
682 2416 -2488 0
-682 2416 2488 0
682 -2416 2488 0
-2488 -2487 -2448 0
2488 2487 -2448 0
-2488 2487 2448 0
2488 -2487 2448 0
-682 -2416 2489 0
-682 -2487 2489 0
-2416 -2487 2489 0
682 2416 -2489 0
682 2487 -2489 0
2416 2487 -2489 0
-683 -2417 -2490 0
683 2417 -2490 0
-683 2417 2490 0
683 -2417 2490 0
-2490 -2489 -2449 0
2490 2489 -2449 0
-2490 2489 2449 0
2490 -2489 2449 0
-683 -2417 2491 0
-683 -2489 2491 0
-2417 -2489 2491 0
683 2417 -2491 0
683 2489 -2491 0
2417 2489 -2491 0
-684 -2418 -2492 0
684 2418 -2492 0
-684 2418 2492 0
684 -2418 2492 0
-2492 -2491 -2450 0
2492 2491 -2450 0
-2492 2491 2450 0
2492 -2491 2450 0
-684 -2418 2493 0
-684 -2491 2493 0
-2418 -2491 2493 0
684 2418 -2493 0
684 2491 -2493 0
2418 2491 -2493 0
-685 -2419 -2494 0
685 2419 -2494 0
-685 2419 2494 0
685 -2419 2494 0
-2494 -2493 -2451 0
2494 2493 -2451 0
-2494 2493 2451 0
2494 -2493 2451 0
-685 -2419 2495 0
-685 -2493 2495 0
-2419 -2493 2495 0
685 2419 -2495 0
685 2493 -2495 0
2419 2493 -2495 0
-686 -2420 -2496 0
686 2420 -2496 0
-686 2420 2496 0
686 -2420 2496 0
-2496 -2495 -2452 0
2496 2495 -2452 0
-2496 2495 2452 0
2496 -2495 2452 0
-686 -2420 2497 0
-686 -2495 2497 0
-2420 -2495 2497 0
686 2420 -2497 0
686 2495 -2497 0
2420 2495 -2497 0
-687 -2421 -2498 0
687 2421 -2498 0
-687 2421 2498 0
687 -2421 2498 0
-2498 -2497 -2453 0
2498 2497 -2453 0
-2498 2497 2453 0
2498 -2497 2453 0
-687 -2421 2499 0
-687 -2497 2499 0
-2421 -2497 2499 0
687 2421 -2499 0
687 2497 -2499 0
2421 2497 -2499 0
-688 -2422 -2500 0
688 2422 -2500 0
-688 2422 2500 0
688 -2422 2500 0
-2500 -2499 -2454 0
2500 2499 -2454 0
-2500 2499 2454 0
2500 -2499 2454 0
-688 -2422 2501 0
-688 -2499 2501 0
-2422 -2499 2501 0
688 2422 -2501 0
688 2499 -2501 0
2422 2499 -2501 0
-689 -2423 -2502 0
689 2423 -2502 0
-689 2423 2502 0
689 -2423 2502 0
-2502 -2501 -2455 0
2502 2501 -2455 0
-2502 2501 2455 0
2502 -2501 2455 0
-689 -2423 2503 0
-689 -2501 2503 0
-2423 -2501 2503 0
689 2423 -2503 0
689 2501 -2503 0
2423 2501 -2503 0
-690 -2424 -2504 0
690 2424 -2504 0
-690 2424 2504 0
690 -2424 2504 0
-2504 -2503 -2456 0
2504 2503 -2456 0
-2504 2503 2456 0
2504 -2503 2456 0
-690 -2424 2505 0
-690 -2503 2505 0
-2424 -2503 2505 0
690 2424 -2505 0
690 2503 -2505 0
2424 2503 -2505 0
-691 -2425 -2506 0
691 2425 -2506 0
-691 2425 2506 0
691 -2425 2506 0
-2506 -2505 -2457 0
2506 2505 -2457 0
-2506 2505 2457 0
2506 -2505 2457 0
-691 -2425 2507 0
-691 -2505 2507 0
-2425 -2505 2507 0
691 2425 -2507 0
691 2505 -2507 0
2425 2505 -2507 0
-692 -2426 -2508 0
692 2426 -2508 0
-692 2426 2508 0
692 -2426 2508 0
-2508 -2507 -2458 0
2508 2507 -2458 0
-2508 2507 2458 0
2508 -2507 2458 0
-692 -2426 2509 0
-692 -2507 2509 0
-2426 -2507 2509 0
692 2426 -2509 0
692 2507 -2509 0
2426 2507 -2509 0
-693 -2427 -2510 0
693 2427 -2510 0
-693 2427 2510 0
693 -2427 2510 0
-2510 -2509 -2459 0
2510 2509 -2459 0
-2510 2509 2459 0
2510 -2509 2459 0
-693 -2427 2511 0
-693 -2509 2511 0
-2427 -2509 2511 0
693 2427 -2511 0
693 2509 -2511 0
2427 2509 -2511 0
-694 -2428 -2512 0
694 2428 -2512 0
-694 2428 2512 0
694 -2428 2512 0
-2512 -2511 -2460 0
2512 2511 -2460 0
-2512 2511 2460 0
2512 -2511 2460 0
-694 -2428 2513 0
-694 -2511 2513 0
-2428 -2511 2513 0
694 2428 -2513 0
694 2511 -2513 0
2428 2511 -2513 0
-695 -2429 -2514 0
695 2429 -2514 0
-695 2429 2514 0
695 -2429 2514 0
-2514 -2513 -2461 0
2514 2513 -2461 0
-2514 2513 2461 0
2514 -2513 2461 0
-695 -2429 2515 0
-695 -2513 2515 0
-2429 -2513 2515 0
695 2429 -2515 0
695 2513 -2515 0
2429 2513 -2515 0
-696 -2430 -2516 0
696 2430 -2516 0
-696 2430 2516 0
696 -2430 2516 0
-2516 -2515 -2462 0
2516 2515 -2462 0
-2516 2515 2462 0
2516 -2515 2462 0
-696 -2430 2517 0
-696 -2515 2517 0
-2430 -2515 2517 0
696 2430 -2517 0
696 2515 -2517 0
2430 2515 -2517 0
-697 -2431 -2518 0
697 2431 -2518 0
-697 2431 2518 0
697 -2431 2518 0
-2518 -2517 -2463 0
2518 2517 -2463 0
-2518 2517 2463 0
2518 -2517 2463 0
-697 -2431 2519 0
-697 -2517 2519 0
-2431 -2517 2519 0
697 2431 -2519 0
697 2517 -2519 0
2431 2517 -2519 0
-698 -2432 -2520 0
698 2432 -2520 0
-698 2432 2520 0
698 -2432 2520 0
-2520 -2519 -2464 0
2520 2519 -2464 0
-2520 2519 2464 0
2520 -2519 2464 0
-698 -2432 2521 0
-698 -2519 2521 0
-2432 -2519 2521 0
698 2432 -2521 0
698 2519 -2521 0
2432 2519 -2521 0
-699 -2433 -2522 0
699 2433 -2522 0
-699 2433 2522 0
699 -2433 2522 0
-2522 -2521 -2465 0
2522 2521 -2465 0
-2522 2521 2465 0
2522 -2521 2465 0
-699 -2433 2523 0
-699 -2521 2523 0
-2433 -2521 2523 0
699 2433 -2523 0
699 2521 -2523 0
2433 2521 -2523 0
-700 -2434 -2524 0
700 2434 -2524 0
-700 2434 2524 0
700 -2434 2524 0
-2524 -2523 -2466 0
2524 2523 -2466 0
-2524 2523 2466 0
2524 -2523 2466 0
-700 -2434 2525 0
-700 -2523 2525 0
-2434 -2523 2525 0
700 2434 -2525 0
700 2523 -2525 0
2434 2523 -2525 0
-701 -2435 -2526 0
701 2435 -2526 0
-701 2435 2526 0
701 -2435 2526 0
-2526 -2525 -2467 0
2526 2525 -2467 0
-2526 2525 2467 0
2526 -2525 2467 0
-701 -2435 2527 0
-701 -2525 2527 0
-2435 -2525 2527 0
701 2435 -2527 0
701 2525 -2527 0
2435 2525 -2527 0
-702 -2436 -2528 0
702 2436 -2528 0
-702 2436 2528 0
702 -2436 2528 0
-2528 -2527 -2468 0
2528 2527 -2468 0
-2528 2527 2468 0
2528 -2527 2468 0
-702 -2436 2529 0
-702 -2527 2529 0
-2436 -2527 2529 0
702 2436 -2529 0
702 2527 -2529 0
2436 2527 -2529 0
-703 -2437 -2530 0
703 2437 -2530 0
-703 2437 2530 0
703 -2437 2530 0
-2530 -2529 -2469 0
2530 2529 -2469 0
-2530 2529 2469 0
2530 -2529 2469 0
-703 -2437 2531 0
-703 -2529 2531 0
-2437 -2529 2531 0
703 2437 -2531 0
703 2529 -2531 0
2437 2529 -2531 0
-704 -2438 -2532 0
704 2438 -2532 0
-704 2438 2532 0
704 -2438 2532 0
-2532 -2531 -2470 0
2532 2531 -2470 0
-2532 2531 2470 0
2532 -2531 2470 0
2533 0
-2534 0
-2535 0
2536 0
2537 0
-2538 0
-2539 0
-2540 0
2541 0
-2542 0
2543 0
2544 0
-2545 0
-2546 0
2547 0
2548 0
-2549 0
-2550 0
-2551 0
-2552 0
-2553 0
2554 0
2555 0
2556 0
2557 0
2558 0
-2559 0
2560 0
2561 0
-2562 0
2563 0
-2564 0
-705 -2533 -2565 0
705 2533 -2565 0
-705 2533 2565 0
705 -2533 2565 0
-705 -2533 2597 0
705 -2597 0
2533 -2597 0
-706 -2534 -2598 0
706 2534 -2598 0
-706 2534 2598 0
706 -2534 2598 0
-2598 -2597 -2566 0
2598 2597 -2566 0
-2598 2597 2566 0
2598 -2597 2566 0
-706 -2534 2599 0
-706 -2597 2599 0
-2534 -2597 2599 0
706 2534 -2599 0
706 2597 -2599 0
2534 2597 -2599 0
-707 -2535 -2600 0
707 2535 -2600 0
-707 2535 2600 0
707 -2535 2600 0
-2600 -2599 -2567 0
2600 2599 -2567 0
-2600 2599 2567 0
2600 -2599 2567 0
-707 -2535 2601 0
-707 -2599 2601 0
-2535 -2599 2601 0
707 2535 -2601 0
707 2599 -2601 0
2535 2599 -2601 0
-708 -2536 -2602 0
708 2536 -2602 0
-708 2536 2602 0
708 -2536 2602 0
-2602 -2601 -2568 0
2602 2601 -2568 0
-2602 2601 2568 0
2602 -2601 2568 0
-708 -2536 2603 0
-708 -2601 2603 0
-2536 -2601 2603 0
708 2536 -2603 0
708 2601 -2603 0
2536 2601 -2603 0
-709 -2537 -2604 0
709 2537 -2604 0
-709 2537 2604 0
709 -2537 2604 0
-2604 -2603 -2569 0
2604 2603 -2569 0
-2604 2603 2569 0
2604 -2603 2569 0
-709 -2537 2605 0
-709 -2603 2605 0
-2537 -2603 2605 0
709 2537 -2605 0
709 2603 -2605 0
2537 2603 -2605 0
-710 -2538 -2606 0
710 2538 -2606 0
-710 2538 2606 0
710 -2538 2606 0
-2606 -2605 -2570 0
2606 2605 -2570 0
-2606 2605 2570 0
2606 -2605 2570 0
-710 -2538 2607 0
-710 -2605 2607 0
-2538 -2605 2607 0
710 2538 -2607 0
710 2605 -2607 0
2538 2605 -2607 0
-711 -2539 -2608 0
711 2539 -2608 0
-711 2539 2608 0
711 -2539 2608 0
-2608 -2607 -2571 0
2608 2607 -2571 0
-2608 2607 2571 0
2608 -2607 2571 0
-711 -2539 2609 0
-711 -2607 2609 0
-2539 -2607 2609 0
711 2539 -2609 0
711 2607 -2609 0
2539 2607 -2609 0
-712 -2540 -2610 0
712 2540 -2610 0
-712 2540 2610 0
712 -2540 2610 0
-2610 -2609 -2572 0
2610 2609 -2572 0
-2610 2609 2572 0
2610 -2609 2572 0
-712 -2540 2611 0
-712 -2609 2611 0
-2540 -2609 2611 0
712 2540 -2611 0
712 2609 -2611 0
2540 2609 -2611 0
-713 -2541 -2612 0
713 2541 -2612 0
-713 2541 2612 0
713 -2541 2612 0
-2612 -2611 -2573 0
2612 2611 -2573 0
-2612 2611 2573 0
2612 -2611 2573 0
-713 -2541 2613 0
-713 -2611 2613 0
-2541 -2611 2613 0
713 2541 -2613 0
713 2611 -2613 0
2541 2611 -2613 0
-714 -2542 -2614 0
714 2542 -2614 0
-714 2542 2614 0
714 -2542 2614 0
-2614 -2613 -2574 0
2614 2613 -2574 0
-2614 2613 2574 0
2614 -2613 2574 0
-714 -2542 2615 0
-714 -2613 2615 0
-2542 -2613 2615 0
714 2542 -2615 0
714 2613 -2615 0
2542 2613 -2615 0
-715 -2543 -2616 0
715 2543 -2616 0
-715 2543 2616 0
715 -2543 2616 0
-2616 -2615 -2575 0
2616 2615 -2575 0
-2616 2615 2575 0
2616 -2615 2575 0
-715 -2543 2617 0
-715 -2615 2617 0
-2543 -2615 2617 0
715 2543 -2617 0
715 2615 -2617 0
2543 2615 -2617 0
-716 -2544 -2618 0
716 2544 -2618 0
-716 2544 2618 0
716 -2544 2618 0
-2618 -2617 -2576 0
2618 2617 -2576 0
-2618 2617 2576 0
2618 -2617 2576 0
-716 -2544 2619 0
-716 -2617 2619 0
-2544 -2617 2619 0
716 2544 -2619 0
716 2617 -2619 0
2544 2617 -2619 0
-717 -2545 -2620 0
717 2545 -2620 0
-717 2545 2620 0
717 -2545 2620 0
-2620 -2619 -2577 0
2620 2619 -2577 0
-2620 2619 2577 0
2620 -2619 2577 0
-717 -2545 2621 0
-717 -2619 2621 0
-2545 -2619 2621 0
717 2545 -2621 0
717 2619 -2621 0
2545 2619 -2621 0
-718 -2546 -2622 0
718 2546 -2622 0
-718 2546 2622 0
718 -2546 2622 0
-2622 -2621 -2578 0
2622 2621 -2578 0
-2622 2621 2578 0
2622 -2621 2578 0
-718 -2546 2623 0
-718 -2621 2623 0
-2546 -2621 2623 0
718 2546 -2623 0
718 2621 -2623 0
2546 2621 -2623 0
-719 -2547 -2624 0
719 2547 -2624 0
-719 2547 2624 0
719 -2547 2624 0
-2624 -2623 -2579 0
2624 2623 -2579 0
-2624 2623 2579 0
2624 -2623 2579 0
-719 -2547 2625 0
-719 -2623 2625 0
-2547 -2623 2625 0
719 2547 -2625 0
719 2623 -2625 0
2547 2623 -2625 0
-720 -2548 -2626 0
720 2548 -2626 0
-720 2548 2626 0
720 -2548 2626 0
-2626 -2625 -2580 0
2626 2625 -2580 0
-2626 2625 2580 0
2626 -2625 2580 0
-720 -2548 2627 0
-720 -2625 2627 0
-2548 -2625 2627 0
720 2548 -2627 0
720 2625 -2627 0
2548 2625 -2627 0
-721 -2549 -2628 0
721 2549 -2628 0
-721 2549 2628 0
721 -2549 2628 0
-2628 -2627 -2581 0
2628 2627 -2581 0
-2628 2627 2581 0
2628 -2627 2581 0
-721 -2549 2629 0
-721 -2627 2629 0
-2549 -2627 2629 0
721 2549 -2629 0
721 2627 -2629 0
2549 2627 -2629 0
-722 -2550 -2630 0
722 2550 -2630 0
-722 2550 2630 0
722 -2550 2630 0
-2630 -2629 -2582 0
2630 2629 -2582 0
-2630 2629 2582 0
2630 -2629 2582 0
-722 -2550 2631 0
-722 -2629 2631 0
-2550 -2629 2631 0
722 2550 -2631 0
722 2629 -2631 0
2550 2629 -2631 0
-723 -2551 -2632 0
723 2551 -2632 0
-723 2551 2632 0
723 -2551 2632 0
-2632 -2631 -2583 0
2632 2631 -2583 0
-2632 2631 2583 0
2632 -2631 2583 0
-723 -2551 2633 0
-723 -2631 2633 0
-2551 -2631 2633 0
723 2551 -2633 0
723 2631 -2633 0
2551 2631 -2633 0
-724 -2552 -2634 0
724 2552 -2634 0
-724 2552 2634 0
724 -2552 2634 0
-2634 -2633 -2584 0
2634 2633 -2584 0
-2634 2633 2584 0
2634 -2633 2584 0
-724 -2552 2635 0
-724 -2633 2635 0
-2552 -2633 2635 0
724 2552 -2635 0
724 2633 -2635 0
2552 2633 -2635 0
-725 -2553 -2636 0
725 2553 -2636 0
-725 2553 2636 0
725 -2553 2636 0
-2636 -2635 -2585 0
2636 2635 -2585 0
-2636 2635 2585 0
2636 -2635 2585 0
-725 -2553 2637 0
-725 -2635 2637 0
-2553 -2635 2637 0
725 2553 -2637 0
725 2635 -2637 0
2553 2635 -2637 0
-726 -2554 -2638 0
726 2554 -2638 0
-726 2554 2638 0
726 -2554 2638 0
-2638 -2637 -2586 0
2638 2637 -2586 0
-2638 2637 2586 0
2638 -2637 2586 0
-726 -2554 2639 0
-726 -2637 2639 0
-2554 -2637 2639 0
726 2554 -2639 0
726 2637 -2639 0
2554 2637 -2639 0
-727 -2555 -2640 0
727 2555 -2640 0
-727 2555 2640 0
727 -2555 2640 0
-2640 -2639 -2587 0
2640 2639 -2587 0
-2640 2639 2587 0
2640 -2639 2587 0
-727 -2555 2641 0
-727 -2639 2641 0
-2555 -2639 2641 0
727 2555 -2641 0
727 2639 -2641 0
2555 2639 -2641 0
-728 -2556 -2642 0
728 2556 -2642 0
-728 2556 2642 0
728 -2556 2642 0
-2642 -2641 -2588 0
2642 2641 -2588 0
-2642 2641 2588 0
2642 -2641 2588 0
-728 -2556 2643 0
-728 -2641 2643 0
-2556 -2641 2643 0
728 2556 -2643 0
728 2641 -2643 0
2556 2641 -2643 0
-729 -2557 -2644 0
729 2557 -2644 0
-729 2557 2644 0
729 -2557 2644 0
-2644 -2643 -2589 0
2644 2643 -2589 0
-2644 2643 2589 0
2644 -2643 2589 0
-729 -2557 2645 0
-729 -2643 2645 0
-2557 -2643 2645 0
729 2557 -2645 0
729 2643 -2645 0
2557 2643 -2645 0
-730 -2558 -2646 0
730 2558 -2646 0
-730 2558 2646 0
730 -2558 2646 0
-2646 -2645 -2590 0
2646 2645 -2590 0
-2646 2645 2590 0
2646 -2645 2590 0
-730 -2558 2647 0
-730 -2645 2647 0
-2558 -2645 2647 0
730 2558 -2647 0
730 2645 -2647 0
2558 2645 -2647 0
-731 -2559 -2648 0
731 2559 -2648 0
-731 2559 2648 0
731 -2559 2648 0
-2648 -2647 -2591 0
2648 2647 -2591 0
-2648 2647 2591 0
2648 -2647 2591 0
-731 -2559 2649 0
-731 -2647 2649 0
-2559 -2647 2649 0
731 2559 -2649 0
731 2647 -2649 0
2559 2647 -2649 0
-732 -2560 -2650 0
732 2560 -2650 0
-732 2560 2650 0
732 -2560 2650 0
-2650 -2649 -2592 0
2650 2649 -2592 0
-2650 2649 2592 0
2650 -2649 2592 0
-732 -2560 2651 0
-732 -2649 2651 0
-2560 -2649 2651 0
732 2560 -2651 0
732 2649 -2651 0
2560 2649 -2651 0
-733 -2561 -2652 0
733 2561 -2652 0
-733 2561 2652 0
733 -2561 2652 0
-2652 -2651 -2593 0
2652 2651 -2593 0
-2652 2651 2593 0
2652 -2651 2593 0
-733 -2561 2653 0
-733 -2651 2653 0
-2561 -2651 2653 0
733 2561 -2653 0
733 2651 -2653 0
2561 2651 -2653 0
-734 -2562 -2654 0
734 2562 -2654 0
-734 2562 2654 0
734 -2562 2654 0
-2654 -2653 -2594 0
2654 2653 -2594 0
-2654 2653 2594 0
2654 -2653 2594 0
-734 -2562 2655 0
-734 -2653 2655 0
-2562 -2653 2655 0
734 2562 -2655 0
734 2653 -2655 0
2562 2653 -2655 0
-735 -2563 -2656 0
735 2563 -2656 0
-735 2563 2656 0
735 -2563 2656 0
-2656 -2655 -2595 0
2656 2655 -2595 0
-2656 2655 2595 0
2656 -2655 2595 0
-735 -2563 2657 0
-735 -2655 2657 0
-2563 -2655 2657 0
735 2563 -2657 0
735 2655 -2657 0
2563 2655 -2657 0
-736 -2564 -2658 0
736 2564 -2658 0
-736 2564 2658 0
736 -2564 2658 0
-2658 -2657 -2596 0
2658 2657 -2596 0
-2658 2657 2596 0
2658 -2657 2596 0
-1683 0
-1684 0
-1685 0
1686 0
-1687 0
-1688 0
-1689 0
-1690 0
-1691 0
1692 0
-1693 0
-1694 0
-1695 0
-1696 0
1697 0
1698 0
1699 0
1700 0
1701 0
-1702 0
1703 0
-1704 0
1705 0
-1706 0
-1707 0
1708 0
-1709 0
1710 0
1711 0
1712 0
-1713 0
1714 0
-1809 0
-1810 0
1811 0
1812 0
-1813 0
1814 0
1815 0
1816 0
-1817 0
-1818 0
1819 0
-1820 0
1821 0
-1822 0
-1823 0
1824 0
1825 0
-1826 0
-1827 0
-1828 0
1829 0
1830 0
1831 0
-1832 0
1833 0
-1834 0
1835 0
-1836 0
-1837 0
1838 0
-1839 0
-1840 0
1935 0
1936 0
1937 0
-1938 0
1939 0
1940 0
1941 0
1942 0
1943 0
-1944 0
-1945 0
-1946 0
-1947 0
1948 0
-1949 0
1950 0
-1951 0
1952 0
1953 0
-1954 0
1955 0
-1956 0
1957 0
1958 0
1959 0
1960 0
1961 0
-1962 0
1963 0
1964 0
1965 0
1966 0
-2061 0
-2062 0
2063 0
2064 0
-2065 0
2066 0
-2067 0
2068 0
-2069 0
-2070 0
-2071 0
2072 0
-2073 0
2074 0
2075 0
2076 0
-2077 0
2078 0
2079 0
2080 0
2081 0
2082 0
-2083 0
2084 0
2085 0
-2086 0
-2087 0
-2088 0
-2089 0
2090 0
2091 0
2092 0
2187 0
-2188 0
2189 0
-2190 0
2191 0
2192 0
2193 0
-2194 0
-2195 0
-2196 0
-2197 0
2198 0
-2199 0
-2200 0
-2201 0
2202 0
2203 0
2204 0
-2205 0
2206 0
2207 0
-2208 0
-2209 0
-2210 0
-2211 0
2212 0
2213 0
2214 0
2215 0
2216 0
-2217 0
-2218 0
2313 0
2314 0
-2315 0
2316 0
-2317 0
-2318 0
-2319 0
-2320 0
2321 0
2322 0
-2323 0
2324 0
2325 0
2326 0
-2327 0
2328 0
2329 0
2330 0
-2331 0
-2332 0
2333 0
-2334 0
-2335 0
-2336 0
-2337 0
-2338 0
2339 0
2340 0
-2341 0
2342 0
2343 0
2344 0
2439 0
2440 0
2441 0
-2442 0
2443 0
2444 0
-2445 0
-2446 0
-2447 0
2448 0
-2449 0
-2450 0
-2451 0
-2452 0
2453 0
-2454 0
2455 0
-2456 0
-2457 0
2458 0
-2459 0
-2460 0
-2461 0
2462 0
-2463 0
2464 0
-2465 0
2466 0
2467 0
2468 0
-2469 0
2470 0
-2565 0
-2566 0
2567 0
-2568 0
-2569 0
-2570 0
2571 0
2572 0
-2573 0
2574 0
2575 0
-2576 0
-2577 0
2578 0
-2579 0
2580 0
-2581 0
-2582 0
2583 0
-2584 0
-2585 0
2586 0
2587 0
-2588 0
2589 0
2590 0
-2591 0
2592 0
2593 0
2594 0
2595 0
-2596 0
